* Signature: 0xd756a27f05f50f2c
NAME phylo_small
ROWS
 N  OBJ
 L  c_0_1   
 L  c_0_3   
 L  c_0_4   
 L  c_0_5   
 L  c_0_7   
 L  c_0_8   
 L  c_0_17  
 L  c_0_20  
 L  c_0_21  
 L  c_0_23  
 L  c_0_32  
 L  c_0_33  
 L  c_0_37  
 L  c_0_39  
 L  c_0_45  
 L  c_0_48  
 L  c_1_2   
 L  c_1_3   
 L  c_1_4   
 L  c_1_6   
 L  c_1_7   
 L  c_1_8   
 L  c_1_10  
 L  c_1_13  
 L  c_1_14  
 L  c_1_17  
 L  c_1_18  
 L  c_1_19  
 L  c_1_20  
 L  c_1_21  
 L  c_1_22  
 L  c_1_23  
 L  c_1_24  
 L  c_1_26  
 L  c_1_28  
 L  c_1_30  
 L  c_1_32  
 L  c_1_33  
 L  c_1_34  
 L  c_1_35  
 L  c_1_36  
 L  c_1_37  
 L  c_1_38  
 L  c_1_39  
 L  c_1_42  
 L  c_1_43  
 L  c_1_44  
 L  c_1_45  
 L  c_1_47  
 L  c_1_48  
 L  c_1_49  
 L  c_2_3   
 L  c_2_5   
 L  c_2_6   
 L  c_2_7   
 L  c_2_9   
 L  c_2_11  
 L  c_2_12  
 L  c_2_13  
 L  c_2_15  
 L  c_2_16  
 L  c_2_17  
 L  c_2_20  
 L  c_2_21  
 L  c_2_22  
 L  c_2_26  
 L  c_2_27  
 L  c_2_31  
 L  c_2_34  
 L  c_2_35  
 L  c_2_41  
 L  c_2_42  
 L  c_2_43  
 L  c_2_44  
 L  c_2_45  
 L  c_2_48  
 L  c_3_4   
 L  c_3_7   
 L  c_3_11  
 L  c_3_13  
 L  c_3_14  
 L  c_3_15  
 L  c_3_21  
 L  c_3_26  
 L  c_3_31  
 L  c_3_32  
 L  c_3_38  
 L  c_3_39  
 L  c_3_41  
 L  c_3_45  
 L  c_3_48  
 L  c_4_5   
 L  c_4_7   
 L  c_4_8   
 L  c_4_9   
 L  c_4_14  
 L  c_4_16  
 L  c_4_17  
 L  c_4_20  
 L  c_4_21  
 L  c_4_25  
 L  c_4_28  
 L  c_4_30  
 L  c_4_32  
 L  c_4_33  
 L  c_4_40  
 L  c_4_42  
 L  c_4_44  
 L  c_4_45  
 L  c_4_46  
 L  c_4_48  
 L  c_4_49  
 L  c_5_6   
 L  c_5_7   
 L  c_5_8   
 L  c_5_9   
 L  c_5_10  
 L  c_5_11  
 L  c_5_12  
 L  c_5_14  
 L  c_5_15  
 L  c_5_16  
 L  c_5_17  
 L  c_5_18  
 L  c_5_20  
 L  c_5_22  
 L  c_5_23  
 L  c_5_26  
 L  c_5_27  
 L  c_5_28  
 L  c_5_30  
 L  c_5_31  
 L  c_5_33  
 L  c_5_34  
 L  c_5_37  
 L  c_5_38  
 L  c_5_39  
 L  c_5_40  
 L  c_5_41  
 L  c_5_42  
 L  c_5_44  
 L  c_5_45  
 L  c_5_46  
 L  c_5_47  
 L  c_5_48  
 L  c_6_7   
 L  c_6_14  
 L  c_6_17  
 L  c_6_19  
 L  c_6_22  
 L  c_6_23  
 L  c_6_24  
 L  c_6_26  
 L  c_6_27  
 L  c_6_28  
 L  c_6_30  
 L  c_6_31  
 L  c_6_32  
 L  c_6_34  
 L  c_6_37  
 L  c_6_38  
 L  c_6_43  
 L  c_6_45  
 L  c_6_48  
 L  c_6_49  
 L  c_7_8   
 L  c_7_9   
 L  c_7_11  
 L  c_7_12  
 L  c_7_13  
 L  c_7_14  
 L  c_7_15  
 L  c_7_16  
 L  c_7_18  
 L  c_7_19  
 L  c_7_21  
 L  c_7_22  
 L  c_7_23  
 L  c_7_24  
 L  c_7_25  
 L  c_7_26  
 L  c_7_28  
 L  c_7_30  
 L  c_7_31  
 L  c_7_32  
 L  c_7_33  
 L  c_7_34  
 L  c_7_36  
 L  c_7_37  
 L  c_7_38  
 L  c_7_39  
 L  c_7_40  
 L  c_7_42  
 L  c_7_43  
 L  c_7_44  
 L  c_7_45  
 L  c_7_48  
 L  c_7_49  
 L  c_8_9   
 L  c_8_10  
 L  c_8_14  
 L  c_8_17  
 L  c_8_20  
 L  c_8_21  
 L  c_8_23  
 L  c_8_25  
 L  c_8_30  
 L  c_8_36  
 L  c_8_37  
 L  c_8_39  
 L  c_8_40  
 L  c_8_49  
 L  c_9_11  
 L  c_9_12  
 L  c_9_14  
 L  c_9_15  
 L  c_9_22  
 L  c_9_25  
 L  c_9_30  
 L  c_9_33  
 L  c_9_35  
 L  c_9_38  
 L  c_9_39  
 L  c_9_40  
 L  c_9_42  
 L  c_9_43  
 L  c_9_45  
 L  c_9_48  
 L  c_9_49  
 L  c_10_12 
 L  c_10_14 
 L  c_10_16 
 L  c_10_17 
 L  c_10_18 
 L  c_10_21 
 L  c_10_24 
 L  c_10_28 
 L  c_10_30 
 L  c_10_33 
 L  c_10_35 
 L  c_10_36 
 L  c_10_38 
 L  c_10_42 
 L  c_10_47 
 L  c_11_12 
 L  c_11_13 
 L  c_11_14 
 L  c_11_15 
 L  c_11_16 
 L  c_11_18 
 L  c_11_22 
 L  c_11_26 
 L  c_11_28 
 L  c_11_31 
 L  c_11_32 
 L  c_11_38 
 L  c_11_39 
 L  c_11_41 
 L  c_11_44 
 L  c_11_45 
 L  c_12_13 
 L  c_12_14 
 L  c_12_15 
 L  c_12_17 
 L  c_12_18 
 L  c_12_21 
 L  c_12_22 
 L  c_12_24 
 L  c_12_28 
 L  c_12_30 
 L  c_12_31 
 L  c_12_32 
 L  c_12_33 
 L  c_12_35 
 L  c_12_37 
 L  c_12_39 
 L  c_12_40 
 L  c_12_41 
 L  c_12_42 
 L  c_12_43 
 L  c_12_45 
 L  c_12_47 
 L  c_12_48 
 L  c_12_49 
 L  c_13_14 
 L  c_13_15 
 L  c_13_16 
 L  c_13_20 
 L  c_13_24 
 L  c_13_26 
 L  c_13_28 
 L  c_13_31 
 L  c_13_32 
 L  c_13_34 
 L  c_13_37 
 L  c_13_38 
 L  c_13_39 
 L  c_13_41 
 L  c_13_42 
 L  c_13_43 
 L  c_13_44 
 L  c_13_45 
 L  c_14_15 
 L  c_14_16 
 L  c_14_17 
 L  c_14_18 
 L  c_14_20 
 L  c_14_21 
 L  c_14_22 
 L  c_14_23 
 L  c_14_24 
 L  c_14_25 
 L  c_14_28 
 L  c_14_30 
 L  c_14_32 
 L  c_14_33 
 L  c_14_34 
 L  c_14_37 
 L  c_14_38 
 L  c_14_39 
 L  c_14_42 
 L  c_14_44 
 L  c_14_45 
 L  c_14_47 
 L  c_14_48 
 L  c_14_49 
 L  c_15_16 
 L  c_15_17 
 L  c_15_18 
 L  c_15_21 
 L  c_15_22 
 L  c_15_24 
 L  c_15_26 
 L  c_15_28 
 L  c_15_31 
 L  c_15_35 
 L  c_15_37 
 L  c_15_38 
 L  c_15_39 
 L  c_15_41 
 L  c_15_42 
 L  c_15_44 
 L  c_15_45 
 L  c_15_49 
 L  c_16_17 
 L  c_16_18 
 L  c_16_20 
 L  c_16_21 
 L  c_16_24 
 L  c_16_26 
 L  c_16_27 
 L  c_16_28 
 L  c_16_32 
 L  c_16_34 
 L  c_16_35 
 L  c_16_40 
 L  c_16_41 
 L  c_16_42 
 L  c_16_44 
 L  c_16_45 
 L  c_16_46 
 L  c_17_18 
 L  c_17_20 
 L  c_17_21 
 L  c_17_23 
 L  c_17_24 
 L  c_17_26 
 L  c_17_27 
 L  c_17_28 
 L  c_17_31 
 L  c_17_33 
 L  c_17_35 
 L  c_17_37 
 L  c_17_38 
 L  c_17_39 
 L  c_17_40 
 L  c_17_42 
 L  c_17_44 
 L  c_17_45 
 L  c_17_46 
 L  c_17_47 
 L  c_17_48 
 L  c_17_49 
 L  c_18_20 
 L  c_18_21 
 L  c_18_24 
 L  c_18_28 
 L  c_18_30 
 L  c_18_41 
 L  c_18_44 
 L  c_18_45 
 L  c_18_49 
 L  c_19_20 
 L  c_19_22 
 L  c_19_23 
 L  c_19_24 
 L  c_19_25 
 L  c_19_26 
 L  c_19_27 
 L  c_19_28 
 L  c_19_32 
 L  c_19_37 
 L  c_19_38 
 L  c_19_40 
 L  c_19_42 
 L  c_19_43 
 L  c_19_46 
 L  c_19_47 
 L  c_19_48 
 L  c_19_49 
 L  c_20_23 
 L  c_20_25 
 L  c_20_30 
 L  c_20_33 
 L  c_20_34 
 L  c_20_37 
 L  c_20_39 
 L  c_20_40 
 L  c_20_42 
 L  c_20_43 
 L  c_20_44 
 L  c_20_45 
 L  c_20_47 
 L  c_21_23 
 L  c_21_24 
 L  c_21_26 
 L  c_21_27 
 L  c_21_28 
 L  c_21_32 
 L  c_21_33 
 L  c_21_34 
 L  c_21_35 
 L  c_21_44 
 L  c_21_45 
 L  c_21_48 
 L  c_21_49 
 L  c_22_23 
 L  c_22_24 
 L  c_22_26 
 L  c_22_28 
 L  c_22_30 
 L  c_22_31 
 L  c_22_32 
 L  c_22_34 
 L  c_22_35 
 L  c_22_37 
 L  c_22_38 
 L  c_22_39 
 L  c_22_42 
 L  c_22_43 
 L  c_22_49 
 L  c_23_24 
 L  c_23_26 
 L  c_23_28 
 L  c_23_32 
 L  c_23_33 
 L  c_23_34 
 L  c_23_35 
 L  c_23_37 
 L  c_23_38 
 L  c_23_39 
 L  c_23_43 
 L  c_23_48 
 L  c_23_49 
 L  c_24_26 
 L  c_24_27 
 L  c_24_28 
 L  c_24_32 
 L  c_24_34 
 L  c_24_35 
 L  c_24_37 
 L  c_24_38 
 L  c_24_42 
 L  c_24_43 
 L  c_24_47 
 L  c_24_48 
 L  c_24_49 
 L  c_25_28 
 L  c_25_30 
 L  c_25_33 
 L  c_25_40 
 L  c_25_44 
 L  c_25_46 
 L  c_25_47 
 L  c_25_49 
 L  c_26_27 
 L  c_26_28 
 L  c_26_31 
 L  c_26_32 
 L  c_26_35 
 L  c_26_36 
 L  c_26_37 
 L  c_26_38 
 L  c_26_39 
 L  c_26_43 
 L  c_26_44 
 L  c_26_45 
 L  c_26_48 
 L  c_26_49 
 L  c_27_31 
 L  c_27_35 
 L  c_27_42 
 L  c_27_44 
 L  c_27_45 
 L  c_27_48 
 L  c_27_49 
 L  c_28_30 
 L  c_28_31 
 L  c_28_32 
 L  c_28_33 
 L  c_28_34 
 L  c_28_35 
 L  c_28_37 
 L  c_28_38 
 L  c_28_39 
 L  c_28_41 
 L  c_28_43 
 L  c_28_44 
 L  c_28_45 
 L  c_28_47 
 L  c_28_48 
 L  c_28_49 
 L  c_30_33 
 L  c_30_34 
 L  c_30_37 
 L  c_30_40 
 L  c_30_47 
 L  c_30_49 
 L  c_31_32 
 L  c_31_37 
 L  c_31_38 
 L  c_31_39 
 L  c_31_41 
 L  c_31_45 
 L  c_31_48 
 L  c_32_34 
 L  c_32_37 
 L  c_32_38 
 L  c_32_39 
 L  c_32_42 
 L  c_32_43 
 L  c_32_45 
 L  c_32_48 
 L  c_32_49 
 L  c_33_36 
 L  c_33_37 
 L  c_33_39 
 L  c_33_40 
 L  c_33_47 
 L  c_33_49 
 L  c_34_35 
 L  c_34_37 
 L  c_34_42 
 L  c_34_43 
 L  c_34_44 
 L  c_34_48 
 L  c_35_38 
 L  c_35_42 
 L  c_35_44 
 L  c_35_47 
 L  c_35_48 
 L  c_37_38 
 L  c_37_39 
 L  c_37_41 
 L  c_37_43 
 L  c_37_49 
 L  c_38_39 
 L  c_38_42 
 L  c_38_43 
 L  c_38_45 
 L  c_38_47 
 L  c_38_49 
 L  c_39_40 
 L  c_39_41 
 L  c_39_43 
 L  c_39_45 
 L  c_39_48 
 L  c_39_49 
 L  c_40_42 
 L  c_40_43 
 L  c_40_44 
 L  c_40_45 
 L  c_40_47 
 L  c_40_48 
 L  c_40_49 
 L  c_41_44 
 L  c_41_45 
 L  c_42_44 
 L  c_42_45 
 L  c_42_46 
 L  c_42_47 
 L  c_42_48 
 L  c_42_49 
 L  c_43_44 
 L  c_43_45 
 L  c_43_48 
 L  c_43_49 
 L  c_44_45 
 L  c_44_46 
 L  c_45_46 
 L  c_45_48 
 L  c_45_49 
 L  c_46_47 
 L  c_48_49 
COLUMNS
    MARKER    'MARKER'                 'INTORG'
    x[0]      OBJ       -8
    x[0]      c_0_1     1
    x[0]      c_0_3     1
    x[0]      c_0_4     1
    x[0]      c_0_5     1
    x[0]      c_0_7     1
    x[0]      c_0_8     1
    x[0]      c_0_17    1
    x[0]      c_0_20    1
    x[0]      c_0_21    1
    x[0]      c_0_23    1
    x[0]      c_0_32    1
    x[0]      c_0_33    1
    x[0]      c_0_37    1
    x[0]      c_0_39    1
    x[0]      c_0_45    1
    x[0]      c_0_48    1
    x[1]      OBJ       -7
    x[1]      c_0_1     1
    x[1]      c_1_2     1
    x[1]      c_1_3     1
    x[1]      c_1_4     1
    x[1]      c_1_6     1
    x[1]      c_1_7     1
    x[1]      c_1_8     1
    x[1]      c_1_10    1
    x[1]      c_1_13    1
    x[1]      c_1_14    1
    x[1]      c_1_17    1
    x[1]      c_1_18    1
    x[1]      c_1_19    1
    x[1]      c_1_20    1
    x[1]      c_1_21    1
    x[1]      c_1_22    1
    x[1]      c_1_23    1
    x[1]      c_1_24    1
    x[1]      c_1_26    1
    x[1]      c_1_28    1
    x[1]      c_1_30    1
    x[1]      c_1_32    1
    x[1]      c_1_33    1
    x[1]      c_1_34    1
    x[1]      c_1_35    1
    x[1]      c_1_36    1
    x[1]      c_1_37    1
    x[1]      c_1_38    1
    x[1]      c_1_39    1
    x[1]      c_1_42    1
    x[1]      c_1_43    1
    x[1]      c_1_44    1
    x[1]      c_1_45    1
    x[1]      c_1_47    1
    x[1]      c_1_48    1
    x[1]      c_1_49    1
    x[2]      OBJ       -5
    x[2]      c_1_2     1
    x[2]      c_2_3     1
    x[2]      c_2_5     1
    x[2]      c_2_6     1
    x[2]      c_2_7     1
    x[2]      c_2_9     1
    x[2]      c_2_11    1
    x[2]      c_2_12    1
    x[2]      c_2_13    1
    x[2]      c_2_15    1
    x[2]      c_2_16    1
    x[2]      c_2_17    1
    x[2]      c_2_20    1
    x[2]      c_2_21    1
    x[2]      c_2_22    1
    x[2]      c_2_26    1
    x[2]      c_2_27    1
    x[2]      c_2_31    1
    x[2]      c_2_34    1
    x[2]      c_2_35    1
    x[2]      c_2_41    1
    x[2]      c_2_42    1
    x[2]      c_2_43    1
    x[2]      c_2_44    1
    x[2]      c_2_45    1
    x[2]      c_2_48    1
    x[3]      OBJ       -5
    x[3]      c_0_3     1
    x[3]      c_1_3     1
    x[3]      c_2_3     1
    x[3]      c_3_4     1
    x[3]      c_3_7     1
    x[3]      c_3_11    1
    x[3]      c_3_13    1
    x[3]      c_3_14    1
    x[3]      c_3_15    1
    x[3]      c_3_21    1
    x[3]      c_3_26    1
    x[3]      c_3_31    1
    x[3]      c_3_32    1
    x[3]      c_3_38    1
    x[3]      c_3_39    1
    x[3]      c_3_41    1
    x[3]      c_3_45    1
    x[3]      c_3_48    1
    x[4]      OBJ       -9
    x[4]      c_0_4     1
    x[4]      c_1_4     1
    x[4]      c_3_4     1
    x[4]      c_4_5     1
    x[4]      c_4_7     1
    x[4]      c_4_8     1
    x[4]      c_4_9     1
    x[4]      c_4_14    1
    x[4]      c_4_16    1
    x[4]      c_4_17    1
    x[4]      c_4_20    1
    x[4]      c_4_21    1
    x[4]      c_4_25    1
    x[4]      c_4_28    1
    x[4]      c_4_30    1
    x[4]      c_4_32    1
    x[4]      c_4_33    1
    x[4]      c_4_40    1
    x[4]      c_4_42    1
    x[4]      c_4_44    1
    x[4]      c_4_45    1
    x[4]      c_4_46    1
    x[4]      c_4_48    1
    x[4]      c_4_49    1
    x[5]      OBJ       -1
    x[5]      c_0_5     1
    x[5]      c_2_5     1
    x[5]      c_4_5     1
    x[5]      c_5_6     1
    x[5]      c_5_7     1
    x[5]      c_5_8     1
    x[5]      c_5_9     1
    x[5]      c_5_10    1
    x[5]      c_5_11    1
    x[5]      c_5_12    1
    x[5]      c_5_14    1
    x[5]      c_5_15    1
    x[5]      c_5_16    1
    x[5]      c_5_17    1
    x[5]      c_5_18    1
    x[5]      c_5_20    1
    x[5]      c_5_22    1
    x[5]      c_5_23    1
    x[5]      c_5_26    1
    x[5]      c_5_27    1
    x[5]      c_5_28    1
    x[5]      c_5_30    1
    x[5]      c_5_31    1
    x[5]      c_5_33    1
    x[5]      c_5_34    1
    x[5]      c_5_37    1
    x[5]      c_5_38    1
    x[5]      c_5_39    1
    x[5]      c_5_40    1
    x[5]      c_5_41    1
    x[5]      c_5_42    1
    x[5]      c_5_44    1
    x[5]      c_5_45    1
    x[5]      c_5_46    1
    x[5]      c_5_47    1
    x[5]      c_5_48    1
    x[6]      OBJ       -7
    x[6]      c_1_6     1
    x[6]      c_2_6     1
    x[6]      c_5_6     1
    x[6]      c_6_7     1
    x[6]      c_6_14    1
    x[6]      c_6_17    1
    x[6]      c_6_19    1
    x[6]      c_6_22    1
    x[6]      c_6_23    1
    x[6]      c_6_24    1
    x[6]      c_6_26    1
    x[6]      c_6_27    1
    x[6]      c_6_28    1
    x[6]      c_6_30    1
    x[6]      c_6_31    1
    x[6]      c_6_32    1
    x[6]      c_6_34    1
    x[6]      c_6_37    1
    x[6]      c_6_38    1
    x[6]      c_6_43    1
    x[6]      c_6_45    1
    x[6]      c_6_48    1
    x[6]      c_6_49    1
    x[7]      OBJ       -3
    x[7]      c_0_7     1
    x[7]      c_1_7     1
    x[7]      c_2_7     1
    x[7]      c_3_7     1
    x[7]      c_4_7     1
    x[7]      c_5_7     1
    x[7]      c_6_7     1
    x[7]      c_7_8     1
    x[7]      c_7_9     1
    x[7]      c_7_11    1
    x[7]      c_7_12    1
    x[7]      c_7_13    1
    x[7]      c_7_14    1
    x[7]      c_7_15    1
    x[7]      c_7_16    1
    x[7]      c_7_18    1
    x[7]      c_7_19    1
    x[7]      c_7_21    1
    x[7]      c_7_22    1
    x[7]      c_7_23    1
    x[7]      c_7_24    1
    x[7]      c_7_25    1
    x[7]      c_7_26    1
    x[7]      c_7_28    1
    x[7]      c_7_30    1
    x[7]      c_7_31    1
    x[7]      c_7_32    1
    x[7]      c_7_33    1
    x[7]      c_7_34    1
    x[7]      c_7_36    1
    x[7]      c_7_37    1
    x[7]      c_7_38    1
    x[7]      c_7_39    1
    x[7]      c_7_40    1
    x[7]      c_7_42    1
    x[7]      c_7_43    1
    x[7]      c_7_44    1
    x[7]      c_7_45    1
    x[7]      c_7_48    1
    x[7]      c_7_49    1
    x[8]      OBJ       -1
    x[8]      c_0_8     1
    x[8]      c_1_8     1
    x[8]      c_4_8     1
    x[8]      c_5_8     1
    x[8]      c_7_8     1
    x[8]      c_8_9     1
    x[8]      c_8_10    1
    x[8]      c_8_14    1
    x[8]      c_8_17    1
    x[8]      c_8_20    1
    x[8]      c_8_21    1
    x[8]      c_8_23    1
    x[8]      c_8_25    1
    x[8]      c_8_30    1
    x[8]      c_8_36    1
    x[8]      c_8_37    1
    x[8]      c_8_39    1
    x[8]      c_8_40    1
    x[8]      c_8_49    1
    x[9]      OBJ       -6
    x[9]      c_2_9     1
    x[9]      c_4_9     1
    x[9]      c_5_9     1
    x[9]      c_7_9     1
    x[9]      c_8_9     1
    x[9]      c_9_11    1
    x[9]      c_9_12    1
    x[9]      c_9_14    1
    x[9]      c_9_15    1
    x[9]      c_9_22    1
    x[9]      c_9_25    1
    x[9]      c_9_30    1
    x[9]      c_9_33    1
    x[9]      c_9_35    1
    x[9]      c_9_38    1
    x[9]      c_9_39    1
    x[9]      c_9_40    1
    x[9]      c_9_42    1
    x[9]      c_9_43    1
    x[9]      c_9_45    1
    x[9]      c_9_48    1
    x[9]      c_9_49    1
    x[10]     OBJ       -10
    x[10]     c_1_10    1
    x[10]     c_5_10    1
    x[10]     c_8_10    1
    x[10]     c_10_12   1
    x[10]     c_10_14   1
    x[10]     c_10_16   1
    x[10]     c_10_17   1
    x[10]     c_10_18   1
    x[10]     c_10_21   1
    x[10]     c_10_24   1
    x[10]     c_10_28   1
    x[10]     c_10_30   1
    x[10]     c_10_33   1
    x[10]     c_10_35   1
    x[10]     c_10_36   1
    x[10]     c_10_38   1
    x[10]     c_10_42   1
    x[10]     c_10_47   1
    x[11]     OBJ       -8
    x[11]     c_2_11    1
    x[11]     c_3_11    1
    x[11]     c_5_11    1
    x[11]     c_7_11    1
    x[11]     c_9_11    1
    x[11]     c_11_12   1
    x[11]     c_11_13   1
    x[11]     c_11_14   1
    x[11]     c_11_15   1
    x[11]     c_11_16   1
    x[11]     c_11_18   1
    x[11]     c_11_22   1
    x[11]     c_11_26   1
    x[11]     c_11_28   1
    x[11]     c_11_31   1
    x[11]     c_11_32   1
    x[11]     c_11_38   1
    x[11]     c_11_39   1
    x[11]     c_11_41   1
    x[11]     c_11_44   1
    x[11]     c_11_45   1
    x[12]     OBJ       -8
    x[12]     c_2_12    1
    x[12]     c_5_12    1
    x[12]     c_7_12    1
    x[12]     c_9_12    1
    x[12]     c_10_12   1
    x[12]     c_11_12   1
    x[12]     c_12_13   1
    x[12]     c_12_14   1
    x[12]     c_12_15   1
    x[12]     c_12_17   1
    x[12]     c_12_18   1
    x[12]     c_12_21   1
    x[12]     c_12_22   1
    x[12]     c_12_24   1
    x[12]     c_12_28   1
    x[12]     c_12_30   1
    x[12]     c_12_31   1
    x[12]     c_12_32   1
    x[12]     c_12_33   1
    x[12]     c_12_35   1
    x[12]     c_12_37   1
    x[12]     c_12_39   1
    x[12]     c_12_40   1
    x[12]     c_12_41   1
    x[12]     c_12_42   1
    x[12]     c_12_43   1
    x[12]     c_12_45   1
    x[12]     c_12_47   1
    x[12]     c_12_48   1
    x[12]     c_12_49   1
    x[13]     OBJ       -8
    x[13]     c_1_13    1
    x[13]     c_2_13    1
    x[13]     c_3_13    1
    x[13]     c_7_13    1
    x[13]     c_11_13   1
    x[13]     c_12_13   1
    x[13]     c_13_14   1
    x[13]     c_13_15   1
    x[13]     c_13_16   1
    x[13]     c_13_20   1
    x[13]     c_13_24   1
    x[13]     c_13_26   1
    x[13]     c_13_28   1
    x[13]     c_13_31   1
    x[13]     c_13_32   1
    x[13]     c_13_34   1
    x[13]     c_13_37   1
    x[13]     c_13_38   1
    x[13]     c_13_39   1
    x[13]     c_13_41   1
    x[13]     c_13_42   1
    x[13]     c_13_43   1
    x[13]     c_13_44   1
    x[13]     c_13_45   1
    x[14]     OBJ       -8
    x[14]     c_1_14    1
    x[14]     c_3_14    1
    x[14]     c_4_14    1
    x[14]     c_5_14    1
    x[14]     c_6_14    1
    x[14]     c_7_14    1
    x[14]     c_8_14    1
    x[14]     c_9_14    1
    x[14]     c_10_14   1
    x[14]     c_11_14   1
    x[14]     c_12_14   1
    x[14]     c_13_14   1
    x[14]     c_14_15   1
    x[14]     c_14_16   1
    x[14]     c_14_17   1
    x[14]     c_14_18   1
    x[14]     c_14_20   1
    x[14]     c_14_21   1
    x[14]     c_14_22   1
    x[14]     c_14_23   1
    x[14]     c_14_24   1
    x[14]     c_14_25   1
    x[14]     c_14_28   1
    x[14]     c_14_30   1
    x[14]     c_14_32   1
    x[14]     c_14_33   1
    x[14]     c_14_34   1
    x[14]     c_14_37   1
    x[14]     c_14_38   1
    x[14]     c_14_39   1
    x[14]     c_14_42   1
    x[14]     c_14_44   1
    x[14]     c_14_45   1
    x[14]     c_14_47   1
    x[14]     c_14_48   1
    x[14]     c_14_49   1
    x[15]     OBJ       -6
    x[15]     c_2_15    1
    x[15]     c_3_15    1
    x[15]     c_5_15    1
    x[15]     c_7_15    1
    x[15]     c_9_15    1
    x[15]     c_11_15   1
    x[15]     c_12_15   1
    x[15]     c_13_15   1
    x[15]     c_14_15   1
    x[15]     c_15_16   1
    x[15]     c_15_17   1
    x[15]     c_15_18   1
    x[15]     c_15_21   1
    x[15]     c_15_22   1
    x[15]     c_15_24   1
    x[15]     c_15_26   1
    x[15]     c_15_28   1
    x[15]     c_15_31   1
    x[15]     c_15_35   1
    x[15]     c_15_37   1
    x[15]     c_15_38   1
    x[15]     c_15_39   1
    x[15]     c_15_41   1
    x[15]     c_15_42   1
    x[15]     c_15_44   1
    x[15]     c_15_45   1
    x[15]     c_15_49   1
    x[16]     OBJ       -2
    x[16]     c_2_16    1
    x[16]     c_4_16    1
    x[16]     c_5_16    1
    x[16]     c_7_16    1
    x[16]     c_10_16   1
    x[16]     c_11_16   1
    x[16]     c_13_16   1
    x[16]     c_14_16   1
    x[16]     c_15_16   1
    x[16]     c_16_17   1
    x[16]     c_16_18   1
    x[16]     c_16_20   1
    x[16]     c_16_21   1
    x[16]     c_16_24   1
    x[16]     c_16_26   1
    x[16]     c_16_27   1
    x[16]     c_16_28   1
    x[16]     c_16_32   1
    x[16]     c_16_34   1
    x[16]     c_16_35   1
    x[16]     c_16_40   1
    x[16]     c_16_41   1
    x[16]     c_16_42   1
    x[16]     c_16_44   1
    x[16]     c_16_45   1
    x[16]     c_16_46   1
    x[17]     OBJ       -9
    x[17]     c_0_17    1
    x[17]     c_1_17    1
    x[17]     c_2_17    1
    x[17]     c_4_17    1
    x[17]     c_5_17    1
    x[17]     c_6_17    1
    x[17]     c_8_17    1
    x[17]     c_10_17   1
    x[17]     c_12_17   1
    x[17]     c_14_17   1
    x[17]     c_15_17   1
    x[17]     c_16_17   1
    x[17]     c_17_18   1
    x[17]     c_17_20   1
    x[17]     c_17_21   1
    x[17]     c_17_23   1
    x[17]     c_17_24   1
    x[17]     c_17_26   1
    x[17]     c_17_27   1
    x[17]     c_17_28   1
    x[17]     c_17_31   1
    x[17]     c_17_33   1
    x[17]     c_17_35   1
    x[17]     c_17_37   1
    x[17]     c_17_38   1
    x[17]     c_17_39   1
    x[17]     c_17_40   1
    x[17]     c_17_42   1
    x[17]     c_17_44   1
    x[17]     c_17_45   1
    x[17]     c_17_46   1
    x[17]     c_17_47   1
    x[17]     c_17_48   1
    x[17]     c_17_49   1
    x[18]     OBJ       -5
    x[18]     c_1_18    1
    x[18]     c_5_18    1
    x[18]     c_7_18    1
    x[18]     c_10_18   1
    x[18]     c_11_18   1
    x[18]     c_12_18   1
    x[18]     c_14_18   1
    x[18]     c_15_18   1
    x[18]     c_16_18   1
    x[18]     c_17_18   1
    x[18]     c_18_20   1
    x[18]     c_18_21   1
    x[18]     c_18_24   1
    x[18]     c_18_28   1
    x[18]     c_18_30   1
    x[18]     c_18_41   1
    x[18]     c_18_44   1
    x[18]     c_18_45   1
    x[18]     c_18_49   1
    x[19]     OBJ       -6
    x[19]     c_1_19    1
    x[19]     c_6_19    1
    x[19]     c_7_19    1
    x[19]     c_19_20   1
    x[19]     c_19_22   1
    x[19]     c_19_23   1
    x[19]     c_19_24   1
    x[19]     c_19_25   1
    x[19]     c_19_26   1
    x[19]     c_19_27   1
    x[19]     c_19_28   1
    x[19]     c_19_32   1
    x[19]     c_19_37   1
    x[19]     c_19_38   1
    x[19]     c_19_40   1
    x[19]     c_19_42   1
    x[19]     c_19_43   1
    x[19]     c_19_46   1
    x[19]     c_19_47   1
    x[19]     c_19_48   1
    x[19]     c_19_49   1
    x[20]     OBJ       -4
    x[20]     c_0_20    1
    x[20]     c_1_20    1
    x[20]     c_2_20    1
    x[20]     c_4_20    1
    x[20]     c_5_20    1
    x[20]     c_8_20    1
    x[20]     c_13_20   1
    x[20]     c_14_20   1
    x[20]     c_16_20   1
    x[20]     c_17_20   1
    x[20]     c_18_20   1
    x[20]     c_19_20   1
    x[20]     c_20_23   1
    x[20]     c_20_25   1
    x[20]     c_20_30   1
    x[20]     c_20_33   1
    x[20]     c_20_34   1
    x[20]     c_20_37   1
    x[20]     c_20_39   1
    x[20]     c_20_40   1
    x[20]     c_20_42   1
    x[20]     c_20_43   1
    x[20]     c_20_44   1
    x[20]     c_20_45   1
    x[20]     c_20_47   1
    x[21]     OBJ       -2
    x[21]     c_0_21    1
    x[21]     c_1_21    1
    x[21]     c_2_21    1
    x[21]     c_3_21    1
    x[21]     c_4_21    1
    x[21]     c_7_21    1
    x[21]     c_8_21    1
    x[21]     c_10_21   1
    x[21]     c_12_21   1
    x[21]     c_14_21   1
    x[21]     c_15_21   1
    x[21]     c_16_21   1
    x[21]     c_17_21   1
    x[21]     c_18_21   1
    x[21]     c_21_23   1
    x[21]     c_21_24   1
    x[21]     c_21_26   1
    x[21]     c_21_27   1
    x[21]     c_21_28   1
    x[21]     c_21_32   1
    x[21]     c_21_33   1
    x[21]     c_21_34   1
    x[21]     c_21_35   1
    x[21]     c_21_44   1
    x[21]     c_21_45   1
    x[21]     c_21_48   1
    x[21]     c_21_49   1
    x[22]     OBJ       -10
    x[22]     c_1_22    1
    x[22]     c_2_22    1
    x[22]     c_5_22    1
    x[22]     c_6_22    1
    x[22]     c_7_22    1
    x[22]     c_9_22    1
    x[22]     c_11_22   1
    x[22]     c_12_22   1
    x[22]     c_14_22   1
    x[22]     c_15_22   1
    x[22]     c_19_22   1
    x[22]     c_22_23   1
    x[22]     c_22_24   1
    x[22]     c_22_26   1
    x[22]     c_22_28   1
    x[22]     c_22_30   1
    x[22]     c_22_31   1
    x[22]     c_22_32   1
    x[22]     c_22_34   1
    x[22]     c_22_35   1
    x[22]     c_22_37   1
    x[22]     c_22_38   1
    x[22]     c_22_39   1
    x[22]     c_22_42   1
    x[22]     c_22_43   1
    x[22]     c_22_49   1
    x[23]     OBJ       -8
    x[23]     c_0_23    1
    x[23]     c_1_23    1
    x[23]     c_5_23    1
    x[23]     c_6_23    1
    x[23]     c_7_23    1
    x[23]     c_8_23    1
    x[23]     c_14_23   1
    x[23]     c_17_23   1
    x[23]     c_19_23   1
    x[23]     c_20_23   1
    x[23]     c_21_23   1
    x[23]     c_22_23   1
    x[23]     c_23_24   1
    x[23]     c_23_26   1
    x[23]     c_23_28   1
    x[23]     c_23_32   1
    x[23]     c_23_33   1
    x[23]     c_23_34   1
    x[23]     c_23_35   1
    x[23]     c_23_37   1
    x[23]     c_23_38   1
    x[23]     c_23_39   1
    x[23]     c_23_43   1
    x[23]     c_23_48   1
    x[23]     c_23_49   1
    x[24]     OBJ       -7
    x[24]     c_1_24    1
    x[24]     c_6_24    1
    x[24]     c_7_24    1
    x[24]     c_10_24   1
    x[24]     c_12_24   1
    x[24]     c_13_24   1
    x[24]     c_14_24   1
    x[24]     c_15_24   1
    x[24]     c_16_24   1
    x[24]     c_17_24   1
    x[24]     c_18_24   1
    x[24]     c_19_24   1
    x[24]     c_21_24   1
    x[24]     c_22_24   1
    x[24]     c_23_24   1
    x[24]     c_24_26   1
    x[24]     c_24_27   1
    x[24]     c_24_28   1
    x[24]     c_24_32   1
    x[24]     c_24_34   1
    x[24]     c_24_35   1
    x[24]     c_24_37   1
    x[24]     c_24_38   1
    x[24]     c_24_42   1
    x[24]     c_24_43   1
    x[24]     c_24_47   1
    x[24]     c_24_48   1
    x[24]     c_24_49   1
    x[25]     OBJ       -5
    x[25]     c_4_25    1
    x[25]     c_7_25    1
    x[25]     c_8_25    1
    x[25]     c_9_25    1
    x[25]     c_14_25   1
    x[25]     c_19_25   1
    x[25]     c_20_25   1
    x[25]     c_25_28   1
    x[25]     c_25_30   1
    x[25]     c_25_33   1
    x[25]     c_25_40   1
    x[25]     c_25_44   1
    x[25]     c_25_46   1
    x[25]     c_25_47   1
    x[25]     c_25_49   1
    x[26]     OBJ       -9
    x[26]     c_1_26    1
    x[26]     c_2_26    1
    x[26]     c_3_26    1
    x[26]     c_5_26    1
    x[26]     c_6_26    1
    x[26]     c_7_26    1
    x[26]     c_11_26   1
    x[26]     c_13_26   1
    x[26]     c_15_26   1
    x[26]     c_16_26   1
    x[26]     c_17_26   1
    x[26]     c_19_26   1
    x[26]     c_21_26   1
    x[26]     c_22_26   1
    x[26]     c_23_26   1
    x[26]     c_24_26   1
    x[26]     c_26_27   1
    x[26]     c_26_28   1
    x[26]     c_26_31   1
    x[26]     c_26_32   1
    x[26]     c_26_35   1
    x[26]     c_26_36   1
    x[26]     c_26_37   1
    x[26]     c_26_38   1
    x[26]     c_26_39   1
    x[26]     c_26_43   1
    x[26]     c_26_44   1
    x[26]     c_26_45   1
    x[26]     c_26_48   1
    x[26]     c_26_49   1
    x[27]     OBJ       -6
    x[27]     c_2_27    1
    x[27]     c_5_27    1
    x[27]     c_6_27    1
    x[27]     c_16_27   1
    x[27]     c_17_27   1
    x[27]     c_19_27   1
    x[27]     c_21_27   1
    x[27]     c_24_27   1
    x[27]     c_26_27   1
    x[27]     c_27_31   1
    x[27]     c_27_35   1
    x[27]     c_27_42   1
    x[27]     c_27_44   1
    x[27]     c_27_45   1
    x[27]     c_27_48   1
    x[27]     c_27_49   1
    x[28]     OBJ       -5
    x[28]     c_1_28    1
    x[28]     c_4_28    1
    x[28]     c_5_28    1
    x[28]     c_6_28    1
    x[28]     c_7_28    1
    x[28]     c_10_28   1
    x[28]     c_11_28   1
    x[28]     c_12_28   1
    x[28]     c_13_28   1
    x[28]     c_14_28   1
    x[28]     c_15_28   1
    x[28]     c_16_28   1
    x[28]     c_17_28   1
    x[28]     c_18_28   1
    x[28]     c_19_28   1
    x[28]     c_21_28   1
    x[28]     c_22_28   1
    x[28]     c_23_28   1
    x[28]     c_24_28   1
    x[28]     c_25_28   1
    x[28]     c_26_28   1
    x[28]     c_28_30   1
    x[28]     c_28_31   1
    x[28]     c_28_32   1
    x[28]     c_28_33   1
    x[28]     c_28_34   1
    x[28]     c_28_35   1
    x[28]     c_28_37   1
    x[28]     c_28_38   1
    x[28]     c_28_39   1
    x[28]     c_28_41   1
    x[28]     c_28_43   1
    x[28]     c_28_44   1
    x[28]     c_28_45   1
    x[28]     c_28_47   1
    x[28]     c_28_48   1
    x[28]     c_28_49   1
    x[29]     OBJ       -5
    x[30]     OBJ       -3
    x[30]     c_1_30    1
    x[30]     c_4_30    1
    x[30]     c_5_30    1
    x[30]     c_6_30    1
    x[30]     c_7_30    1
    x[30]     c_8_30    1
    x[30]     c_9_30    1
    x[30]     c_10_30   1
    x[30]     c_12_30   1
    x[30]     c_14_30   1
    x[30]     c_18_30   1
    x[30]     c_20_30   1
    x[30]     c_22_30   1
    x[30]     c_25_30   1
    x[30]     c_28_30   1
    x[30]     c_30_33   1
    x[30]     c_30_34   1
    x[30]     c_30_37   1
    x[30]     c_30_40   1
    x[30]     c_30_47   1
    x[30]     c_30_49   1
    x[31]     OBJ       -1
    x[31]     c_2_31    1
    x[31]     c_3_31    1
    x[31]     c_5_31    1
    x[31]     c_6_31    1
    x[31]     c_7_31    1
    x[31]     c_11_31   1
    x[31]     c_12_31   1
    x[31]     c_13_31   1
    x[31]     c_15_31   1
    x[31]     c_17_31   1
    x[31]     c_22_31   1
    x[31]     c_26_31   1
    x[31]     c_27_31   1
    x[31]     c_28_31   1
    x[31]     c_31_32   1
    x[31]     c_31_37   1
    x[31]     c_31_38   1
    x[31]     c_31_39   1
    x[31]     c_31_41   1
    x[31]     c_31_45   1
    x[31]     c_31_48   1
    x[32]     OBJ       -6
    x[32]     c_0_32    1
    x[32]     c_1_32    1
    x[32]     c_3_32    1
    x[32]     c_4_32    1
    x[32]     c_6_32    1
    x[32]     c_7_32    1
    x[32]     c_11_32   1
    x[32]     c_12_32   1
    x[32]     c_13_32   1
    x[32]     c_14_32   1
    x[32]     c_16_32   1
    x[32]     c_19_32   1
    x[32]     c_21_32   1
    x[32]     c_22_32   1
    x[32]     c_23_32   1
    x[32]     c_24_32   1
    x[32]     c_26_32   1
    x[32]     c_28_32   1
    x[32]     c_31_32   1
    x[32]     c_32_34   1
    x[32]     c_32_37   1
    x[32]     c_32_38   1
    x[32]     c_32_39   1
    x[32]     c_32_42   1
    x[32]     c_32_43   1
    x[32]     c_32_45   1
    x[32]     c_32_48   1
    x[32]     c_32_49   1
    x[33]     OBJ       -9
    x[33]     c_0_33    1
    x[33]     c_1_33    1
    x[33]     c_4_33    1
    x[33]     c_5_33    1
    x[33]     c_7_33    1
    x[33]     c_9_33    1
    x[33]     c_10_33   1
    x[33]     c_12_33   1
    x[33]     c_14_33   1
    x[33]     c_17_33   1
    x[33]     c_20_33   1
    x[33]     c_21_33   1
    x[33]     c_23_33   1
    x[33]     c_25_33   1
    x[33]     c_28_33   1
    x[33]     c_30_33   1
    x[33]     c_33_36   1
    x[33]     c_33_37   1
    x[33]     c_33_39   1
    x[33]     c_33_40   1
    x[33]     c_33_47   1
    x[33]     c_33_49   1
    x[34]     OBJ       -1
    x[34]     c_1_34    1
    x[34]     c_2_34    1
    x[34]     c_5_34    1
    x[34]     c_6_34    1
    x[34]     c_7_34    1
    x[34]     c_13_34   1
    x[34]     c_14_34   1
    x[34]     c_16_34   1
    x[34]     c_20_34   1
    x[34]     c_21_34   1
    x[34]     c_22_34   1
    x[34]     c_23_34   1
    x[34]     c_24_34   1
    x[34]     c_28_34   1
    x[34]     c_30_34   1
    x[34]     c_32_34   1
    x[34]     c_34_35   1
    x[34]     c_34_37   1
    x[34]     c_34_42   1
    x[34]     c_34_43   1
    x[34]     c_34_44   1
    x[34]     c_34_48   1
    x[35]     OBJ       -9
    x[35]     c_1_35    1
    x[35]     c_2_35    1
    x[35]     c_9_35    1
    x[35]     c_10_35   1
    x[35]     c_12_35   1
    x[35]     c_15_35   1
    x[35]     c_16_35   1
    x[35]     c_17_35   1
    x[35]     c_21_35   1
    x[35]     c_22_35   1
    x[35]     c_23_35   1
    x[35]     c_24_35   1
    x[35]     c_26_35   1
    x[35]     c_27_35   1
    x[35]     c_28_35   1
    x[35]     c_34_35   1
    x[35]     c_35_38   1
    x[35]     c_35_42   1
    x[35]     c_35_44   1
    x[35]     c_35_47   1
    x[35]     c_35_48   1
    x[36]     OBJ       -9
    x[36]     c_1_36    1
    x[36]     c_7_36    1
    x[36]     c_8_36    1
    x[36]     c_10_36   1
    x[36]     c_26_36   1
    x[36]     c_33_36   1
    x[37]     OBJ       -3
    x[37]     c_0_37    1
    x[37]     c_1_37    1
    x[37]     c_5_37    1
    x[37]     c_6_37    1
    x[37]     c_7_37    1
    x[37]     c_8_37    1
    x[37]     c_12_37   1
    x[37]     c_13_37   1
    x[37]     c_14_37   1
    x[37]     c_15_37   1
    x[37]     c_17_37   1
    x[37]     c_19_37   1
    x[37]     c_20_37   1
    x[37]     c_22_37   1
    x[37]     c_23_37   1
    x[37]     c_24_37   1
    x[37]     c_26_37   1
    x[37]     c_28_37   1
    x[37]     c_30_37   1
    x[37]     c_31_37   1
    x[37]     c_32_37   1
    x[37]     c_33_37   1
    x[37]     c_34_37   1
    x[37]     c_37_38   1
    x[37]     c_37_39   1
    x[37]     c_37_41   1
    x[37]     c_37_43   1
    x[37]     c_37_49   1
    x[38]     OBJ       -7
    x[38]     c_1_38    1
    x[38]     c_3_38    1
    x[38]     c_5_38    1
    x[38]     c_6_38    1
    x[38]     c_7_38    1
    x[38]     c_9_38    1
    x[38]     c_10_38   1
    x[38]     c_11_38   1
    x[38]     c_13_38   1
    x[38]     c_14_38   1
    x[38]     c_15_38   1
    x[38]     c_17_38   1
    x[38]     c_19_38   1
    x[38]     c_22_38   1
    x[38]     c_23_38   1
    x[38]     c_24_38   1
    x[38]     c_26_38   1
    x[38]     c_28_38   1
    x[38]     c_31_38   1
    x[38]     c_32_38   1
    x[38]     c_35_38   1
    x[38]     c_37_38   1
    x[38]     c_38_39   1
    x[38]     c_38_42   1
    x[38]     c_38_43   1
    x[38]     c_38_45   1
    x[38]     c_38_47   1
    x[38]     c_38_49   1
    x[39]     OBJ       -2
    x[39]     c_0_39    1
    x[39]     c_1_39    1
    x[39]     c_3_39    1
    x[39]     c_5_39    1
    x[39]     c_7_39    1
    x[39]     c_8_39    1
    x[39]     c_9_39    1
    x[39]     c_11_39   1
    x[39]     c_12_39   1
    x[39]     c_13_39   1
    x[39]     c_14_39   1
    x[39]     c_15_39   1
    x[39]     c_17_39   1
    x[39]     c_20_39   1
    x[39]     c_22_39   1
    x[39]     c_23_39   1
    x[39]     c_26_39   1
    x[39]     c_28_39   1
    x[39]     c_31_39   1
    x[39]     c_32_39   1
    x[39]     c_33_39   1
    x[39]     c_37_39   1
    x[39]     c_38_39   1
    x[39]     c_39_40   1
    x[39]     c_39_41   1
    x[39]     c_39_43   1
    x[39]     c_39_45   1
    x[39]     c_39_48   1
    x[39]     c_39_49   1
    x[40]     OBJ       -8
    x[40]     c_4_40    1
    x[40]     c_5_40    1
    x[40]     c_7_40    1
    x[40]     c_8_40    1
    x[40]     c_9_40    1
    x[40]     c_12_40   1
    x[40]     c_16_40   1
    x[40]     c_17_40   1
    x[40]     c_19_40   1
    x[40]     c_20_40   1
    x[40]     c_25_40   1
    x[40]     c_30_40   1
    x[40]     c_33_40   1
    x[40]     c_39_40   1
    x[40]     c_40_42   1
    x[40]     c_40_43   1
    x[40]     c_40_44   1
    x[40]     c_40_45   1
    x[40]     c_40_47   1
    x[40]     c_40_48   1
    x[40]     c_40_49   1
    x[41]     OBJ       -8
    x[41]     c_2_41    1
    x[41]     c_3_41    1
    x[41]     c_5_41    1
    x[41]     c_11_41   1
    x[41]     c_12_41   1
    x[41]     c_13_41   1
    x[41]     c_15_41   1
    x[41]     c_16_41   1
    x[41]     c_18_41   1
    x[41]     c_28_41   1
    x[41]     c_31_41   1
    x[41]     c_37_41   1
    x[41]     c_39_41   1
    x[41]     c_41_44   1
    x[41]     c_41_45   1
    x[42]     OBJ       -4
    x[42]     c_1_42    1
    x[42]     c_2_42    1
    x[42]     c_4_42    1
    x[42]     c_5_42    1
    x[42]     c_7_42    1
    x[42]     c_9_42    1
    x[42]     c_10_42   1
    x[42]     c_12_42   1
    x[42]     c_13_42   1
    x[42]     c_14_42   1
    x[42]     c_15_42   1
    x[42]     c_16_42   1
    x[42]     c_17_42   1
    x[42]     c_19_42   1
    x[42]     c_20_42   1
    x[42]     c_22_42   1
    x[42]     c_24_42   1
    x[42]     c_27_42   1
    x[42]     c_32_42   1
    x[42]     c_34_42   1
    x[42]     c_35_42   1
    x[42]     c_38_42   1
    x[42]     c_40_42   1
    x[42]     c_42_44   1
    x[42]     c_42_45   1
    x[42]     c_42_46   1
    x[42]     c_42_47   1
    x[42]     c_42_48   1
    x[42]     c_42_49   1
    x[43]     OBJ       -1
    x[43]     c_1_43    1
    x[43]     c_2_43    1
    x[43]     c_6_43    1
    x[43]     c_7_43    1
    x[43]     c_9_43    1
    x[43]     c_12_43   1
    x[43]     c_13_43   1
    x[43]     c_19_43   1
    x[43]     c_20_43   1
    x[43]     c_22_43   1
    x[43]     c_23_43   1
    x[43]     c_24_43   1
    x[43]     c_26_43   1
    x[43]     c_28_43   1
    x[43]     c_32_43   1
    x[43]     c_34_43   1
    x[43]     c_37_43   1
    x[43]     c_38_43   1
    x[43]     c_39_43   1
    x[43]     c_40_43   1
    x[43]     c_43_44   1
    x[43]     c_43_45   1
    x[43]     c_43_48   1
    x[43]     c_43_49   1
    x[44]     OBJ       -10
    x[44]     c_1_44    1
    x[44]     c_2_44    1
    x[44]     c_4_44    1
    x[44]     c_5_44    1
    x[44]     c_7_44    1
    x[44]     c_11_44   1
    x[44]     c_13_44   1
    x[44]     c_14_44   1
    x[44]     c_15_44   1
    x[44]     c_16_44   1
    x[44]     c_17_44   1
    x[44]     c_18_44   1
    x[44]     c_20_44   1
    x[44]     c_21_44   1
    x[44]     c_25_44   1
    x[44]     c_26_44   1
    x[44]     c_27_44   1
    x[44]     c_28_44   1
    x[44]     c_34_44   1
    x[44]     c_35_44   1
    x[44]     c_40_44   1
    x[44]     c_41_44   1
    x[44]     c_42_44   1
    x[44]     c_43_44   1
    x[44]     c_44_45   1
    x[44]     c_44_46   1
    x[45]     OBJ       -5
    x[45]     c_0_45    1
    x[45]     c_1_45    1
    x[45]     c_2_45    1
    x[45]     c_3_45    1
    x[45]     c_4_45    1
    x[45]     c_5_45    1
    x[45]     c_6_45    1
    x[45]     c_7_45    1
    x[45]     c_9_45    1
    x[45]     c_11_45   1
    x[45]     c_12_45   1
    x[45]     c_13_45   1
    x[45]     c_14_45   1
    x[45]     c_15_45   1
    x[45]     c_16_45   1
    x[45]     c_17_45   1
    x[45]     c_18_45   1
    x[45]     c_20_45   1
    x[45]     c_21_45   1
    x[45]     c_26_45   1
    x[45]     c_27_45   1
    x[45]     c_28_45   1
    x[45]     c_31_45   1
    x[45]     c_32_45   1
    x[45]     c_38_45   1
    x[45]     c_39_45   1
    x[45]     c_40_45   1
    x[45]     c_41_45   1
    x[45]     c_42_45   1
    x[45]     c_43_45   1
    x[45]     c_44_45   1
    x[45]     c_45_46   1
    x[45]     c_45_48   1
    x[45]     c_45_49   1
    x[46]     OBJ       -9
    x[46]     c_4_46    1
    x[46]     c_5_46    1
    x[46]     c_16_46   1
    x[46]     c_17_46   1
    x[46]     c_19_46   1
    x[46]     c_25_46   1
    x[46]     c_42_46   1
    x[46]     c_44_46   1
    x[46]     c_45_46   1
    x[46]     c_46_47   1
    x[47]     OBJ       -7
    x[47]     c_1_47    1
    x[47]     c_5_47    1
    x[47]     c_10_47   1
    x[47]     c_12_47   1
    x[47]     c_14_47   1
    x[47]     c_17_47   1
    x[47]     c_19_47   1
    x[47]     c_20_47   1
    x[47]     c_24_47   1
    x[47]     c_25_47   1
    x[47]     c_28_47   1
    x[47]     c_30_47   1
    x[47]     c_33_47   1
    x[47]     c_35_47   1
    x[47]     c_38_47   1
    x[47]     c_40_47   1
    x[47]     c_42_47   1
    x[47]     c_46_47   1
    x[48]     OBJ       -8
    x[48]     c_0_48    1
    x[48]     c_1_48    1
    x[48]     c_2_48    1
    x[48]     c_3_48    1
    x[48]     c_4_48    1
    x[48]     c_5_48    1
    x[48]     c_6_48    1
    x[48]     c_7_48    1
    x[48]     c_9_48    1
    x[48]     c_12_48   1
    x[48]     c_14_48   1
    x[48]     c_17_48   1
    x[48]     c_19_48   1
    x[48]     c_21_48   1
    x[48]     c_23_48   1
    x[48]     c_24_48   1
    x[48]     c_26_48   1
    x[48]     c_27_48   1
    x[48]     c_28_48   1
    x[48]     c_31_48   1
    x[48]     c_32_48   1
    x[48]     c_34_48   1
    x[48]     c_35_48   1
    x[48]     c_39_48   1
    x[48]     c_40_48   1
    x[48]     c_42_48   1
    x[48]     c_43_48   1
    x[48]     c_45_48   1
    x[48]     c_48_49   1
    x[49]     OBJ       -8
    x[49]     c_1_49    1
    x[49]     c_4_49    1
    x[49]     c_6_49    1
    x[49]     c_7_49    1
    x[49]     c_8_49    1
    x[49]     c_9_49    1
    x[49]     c_12_49   1
    x[49]     c_14_49   1
    x[49]     c_15_49   1
    x[49]     c_17_49   1
    x[49]     c_18_49   1
    x[49]     c_19_49   1
    x[49]     c_21_49   1
    x[49]     c_22_49   1
    x[49]     c_23_49   1
    x[49]     c_24_49   1
    x[49]     c_25_49   1
    x[49]     c_26_49   1
    x[49]     c_27_49   1
    x[49]     c_28_49   1
    x[49]     c_30_49   1
    x[49]     c_32_49   1
    x[49]     c_33_49   1
    x[49]     c_37_49   1
    x[49]     c_38_49   1
    x[49]     c_39_49   1
    x[49]     c_40_49   1
    x[49]     c_42_49   1
    x[49]     c_43_49   1
    x[49]     c_45_49   1
    x[49]     c_48_49   1
    MARKER    'MARKER'                 'INTEND'
RHS
    RHS1      c_0_1     1
    RHS1      c_0_3     1
    RHS1      c_0_4     1
    RHS1      c_0_5     1
    RHS1      c_0_7     1
    RHS1      c_0_8     1
    RHS1      c_0_17    1
    RHS1      c_0_20    1
    RHS1      c_0_21    1
    RHS1      c_0_23    1
    RHS1      c_0_32    1
    RHS1      c_0_33    1
    RHS1      c_0_37    1
    RHS1      c_0_39    1
    RHS1      c_0_45    1
    RHS1      c_0_48    1
    RHS1      c_1_2     1
    RHS1      c_1_3     1
    RHS1      c_1_4     1
    RHS1      c_1_6     1
    RHS1      c_1_7     1
    RHS1      c_1_8     1
    RHS1      c_1_10    1
    RHS1      c_1_13    1
    RHS1      c_1_14    1
    RHS1      c_1_17    1
    RHS1      c_1_18    1
    RHS1      c_1_19    1
    RHS1      c_1_20    1
    RHS1      c_1_21    1
    RHS1      c_1_22    1
    RHS1      c_1_23    1
    RHS1      c_1_24    1
    RHS1      c_1_26    1
    RHS1      c_1_28    1
    RHS1      c_1_30    1
    RHS1      c_1_32    1
    RHS1      c_1_33    1
    RHS1      c_1_34    1
    RHS1      c_1_35    1
    RHS1      c_1_36    1
    RHS1      c_1_37    1
    RHS1      c_1_38    1
    RHS1      c_1_39    1
    RHS1      c_1_42    1
    RHS1      c_1_43    1
    RHS1      c_1_44    1
    RHS1      c_1_45    1
    RHS1      c_1_47    1
    RHS1      c_1_48    1
    RHS1      c_1_49    1
    RHS1      c_2_3     1
    RHS1      c_2_5     1
    RHS1      c_2_6     1
    RHS1      c_2_7     1
    RHS1      c_2_9     1
    RHS1      c_2_11    1
    RHS1      c_2_12    1
    RHS1      c_2_13    1
    RHS1      c_2_15    1
    RHS1      c_2_16    1
    RHS1      c_2_17    1
    RHS1      c_2_20    1
    RHS1      c_2_21    1
    RHS1      c_2_22    1
    RHS1      c_2_26    1
    RHS1      c_2_27    1
    RHS1      c_2_31    1
    RHS1      c_2_34    1
    RHS1      c_2_35    1
    RHS1      c_2_41    1
    RHS1      c_2_42    1
    RHS1      c_2_43    1
    RHS1      c_2_44    1
    RHS1      c_2_45    1
    RHS1      c_2_48    1
    RHS1      c_3_4     1
    RHS1      c_3_7     1
    RHS1      c_3_11    1
    RHS1      c_3_13    1
    RHS1      c_3_14    1
    RHS1      c_3_15    1
    RHS1      c_3_21    1
    RHS1      c_3_26    1
    RHS1      c_3_31    1
    RHS1      c_3_32    1
    RHS1      c_3_38    1
    RHS1      c_3_39    1
    RHS1      c_3_41    1
    RHS1      c_3_45    1
    RHS1      c_3_48    1
    RHS1      c_4_5     1
    RHS1      c_4_7     1
    RHS1      c_4_8     1
    RHS1      c_4_9     1
    RHS1      c_4_14    1
    RHS1      c_4_16    1
    RHS1      c_4_17    1
    RHS1      c_4_20    1
    RHS1      c_4_21    1
    RHS1      c_4_25    1
    RHS1      c_4_28    1
    RHS1      c_4_30    1
    RHS1      c_4_32    1
    RHS1      c_4_33    1
    RHS1      c_4_40    1
    RHS1      c_4_42    1
    RHS1      c_4_44    1
    RHS1      c_4_45    1
    RHS1      c_4_46    1
    RHS1      c_4_48    1
    RHS1      c_4_49    1
    RHS1      c_5_6     1
    RHS1      c_5_7     1
    RHS1      c_5_8     1
    RHS1      c_5_9     1
    RHS1      c_5_10    1
    RHS1      c_5_11    1
    RHS1      c_5_12    1
    RHS1      c_5_14    1
    RHS1      c_5_15    1
    RHS1      c_5_16    1
    RHS1      c_5_17    1
    RHS1      c_5_18    1
    RHS1      c_5_20    1
    RHS1      c_5_22    1
    RHS1      c_5_23    1
    RHS1      c_5_26    1
    RHS1      c_5_27    1
    RHS1      c_5_28    1
    RHS1      c_5_30    1
    RHS1      c_5_31    1
    RHS1      c_5_33    1
    RHS1      c_5_34    1
    RHS1      c_5_37    1
    RHS1      c_5_38    1
    RHS1      c_5_39    1
    RHS1      c_5_40    1
    RHS1      c_5_41    1
    RHS1      c_5_42    1
    RHS1      c_5_44    1
    RHS1      c_5_45    1
    RHS1      c_5_46    1
    RHS1      c_5_47    1
    RHS1      c_5_48    1
    RHS1      c_6_7     1
    RHS1      c_6_14    1
    RHS1      c_6_17    1
    RHS1      c_6_19    1
    RHS1      c_6_22    1
    RHS1      c_6_23    1
    RHS1      c_6_24    1
    RHS1      c_6_26    1
    RHS1      c_6_27    1
    RHS1      c_6_28    1
    RHS1      c_6_30    1
    RHS1      c_6_31    1
    RHS1      c_6_32    1
    RHS1      c_6_34    1
    RHS1      c_6_37    1
    RHS1      c_6_38    1
    RHS1      c_6_43    1
    RHS1      c_6_45    1
    RHS1      c_6_48    1
    RHS1      c_6_49    1
    RHS1      c_7_8     1
    RHS1      c_7_9     1
    RHS1      c_7_11    1
    RHS1      c_7_12    1
    RHS1      c_7_13    1
    RHS1      c_7_14    1
    RHS1      c_7_15    1
    RHS1      c_7_16    1
    RHS1      c_7_18    1
    RHS1      c_7_19    1
    RHS1      c_7_21    1
    RHS1      c_7_22    1
    RHS1      c_7_23    1
    RHS1      c_7_24    1
    RHS1      c_7_25    1
    RHS1      c_7_26    1
    RHS1      c_7_28    1
    RHS1      c_7_30    1
    RHS1      c_7_31    1
    RHS1      c_7_32    1
    RHS1      c_7_33    1
    RHS1      c_7_34    1
    RHS1      c_7_36    1
    RHS1      c_7_37    1
    RHS1      c_7_38    1
    RHS1      c_7_39    1
    RHS1      c_7_40    1
    RHS1      c_7_42    1
    RHS1      c_7_43    1
    RHS1      c_7_44    1
    RHS1      c_7_45    1
    RHS1      c_7_48    1
    RHS1      c_7_49    1
    RHS1      c_8_9     1
    RHS1      c_8_10    1
    RHS1      c_8_14    1
    RHS1      c_8_17    1
    RHS1      c_8_20    1
    RHS1      c_8_21    1
    RHS1      c_8_23    1
    RHS1      c_8_25    1
    RHS1      c_8_30    1
    RHS1      c_8_36    1
    RHS1      c_8_37    1
    RHS1      c_8_39    1
    RHS1      c_8_40    1
    RHS1      c_8_49    1
    RHS1      c_9_11    1
    RHS1      c_9_12    1
    RHS1      c_9_14    1
    RHS1      c_9_15    1
    RHS1      c_9_22    1
    RHS1      c_9_25    1
    RHS1      c_9_30    1
    RHS1      c_9_33    1
    RHS1      c_9_35    1
    RHS1      c_9_38    1
    RHS1      c_9_39    1
    RHS1      c_9_40    1
    RHS1      c_9_42    1
    RHS1      c_9_43    1
    RHS1      c_9_45    1
    RHS1      c_9_48    1
    RHS1      c_9_49    1
    RHS1      c_10_12   1
    RHS1      c_10_14   1
    RHS1      c_10_16   1
    RHS1      c_10_17   1
    RHS1      c_10_18   1
    RHS1      c_10_21   1
    RHS1      c_10_24   1
    RHS1      c_10_28   1
    RHS1      c_10_30   1
    RHS1      c_10_33   1
    RHS1      c_10_35   1
    RHS1      c_10_36   1
    RHS1      c_10_38   1
    RHS1      c_10_42   1
    RHS1      c_10_47   1
    RHS1      c_11_12   1
    RHS1      c_11_13   1
    RHS1      c_11_14   1
    RHS1      c_11_15   1
    RHS1      c_11_16   1
    RHS1      c_11_18   1
    RHS1      c_11_22   1
    RHS1      c_11_26   1
    RHS1      c_11_28   1
    RHS1      c_11_31   1
    RHS1      c_11_32   1
    RHS1      c_11_38   1
    RHS1      c_11_39   1
    RHS1      c_11_41   1
    RHS1      c_11_44   1
    RHS1      c_11_45   1
    RHS1      c_12_13   1
    RHS1      c_12_14   1
    RHS1      c_12_15   1
    RHS1      c_12_17   1
    RHS1      c_12_18   1
    RHS1      c_12_21   1
    RHS1      c_12_22   1
    RHS1      c_12_24   1
    RHS1      c_12_28   1
    RHS1      c_12_30   1
    RHS1      c_12_31   1
    RHS1      c_12_32   1
    RHS1      c_12_33   1
    RHS1      c_12_35   1
    RHS1      c_12_37   1
    RHS1      c_12_39   1
    RHS1      c_12_40   1
    RHS1      c_12_41   1
    RHS1      c_12_42   1
    RHS1      c_12_43   1
    RHS1      c_12_45   1
    RHS1      c_12_47   1
    RHS1      c_12_48   1
    RHS1      c_12_49   1
    RHS1      c_13_14   1
    RHS1      c_13_15   1
    RHS1      c_13_16   1
    RHS1      c_13_20   1
    RHS1      c_13_24   1
    RHS1      c_13_26   1
    RHS1      c_13_28   1
    RHS1      c_13_31   1
    RHS1      c_13_32   1
    RHS1      c_13_34   1
    RHS1      c_13_37   1
    RHS1      c_13_38   1
    RHS1      c_13_39   1
    RHS1      c_13_41   1
    RHS1      c_13_42   1
    RHS1      c_13_43   1
    RHS1      c_13_44   1
    RHS1      c_13_45   1
    RHS1      c_14_15   1
    RHS1      c_14_16   1
    RHS1      c_14_17   1
    RHS1      c_14_18   1
    RHS1      c_14_20   1
    RHS1      c_14_21   1
    RHS1      c_14_22   1
    RHS1      c_14_23   1
    RHS1      c_14_24   1
    RHS1      c_14_25   1
    RHS1      c_14_28   1
    RHS1      c_14_30   1
    RHS1      c_14_32   1
    RHS1      c_14_33   1
    RHS1      c_14_34   1
    RHS1      c_14_37   1
    RHS1      c_14_38   1
    RHS1      c_14_39   1
    RHS1      c_14_42   1
    RHS1      c_14_44   1
    RHS1      c_14_45   1
    RHS1      c_14_47   1
    RHS1      c_14_48   1
    RHS1      c_14_49   1
    RHS1      c_15_16   1
    RHS1      c_15_17   1
    RHS1      c_15_18   1
    RHS1      c_15_21   1
    RHS1      c_15_22   1
    RHS1      c_15_24   1
    RHS1      c_15_26   1
    RHS1      c_15_28   1
    RHS1      c_15_31   1
    RHS1      c_15_35   1
    RHS1      c_15_37   1
    RHS1      c_15_38   1
    RHS1      c_15_39   1
    RHS1      c_15_41   1
    RHS1      c_15_42   1
    RHS1      c_15_44   1
    RHS1      c_15_45   1
    RHS1      c_15_49   1
    RHS1      c_16_17   1
    RHS1      c_16_18   1
    RHS1      c_16_20   1
    RHS1      c_16_21   1
    RHS1      c_16_24   1
    RHS1      c_16_26   1
    RHS1      c_16_27   1
    RHS1      c_16_28   1
    RHS1      c_16_32   1
    RHS1      c_16_34   1
    RHS1      c_16_35   1
    RHS1      c_16_40   1
    RHS1      c_16_41   1
    RHS1      c_16_42   1
    RHS1      c_16_44   1
    RHS1      c_16_45   1
    RHS1      c_16_46   1
    RHS1      c_17_18   1
    RHS1      c_17_20   1
    RHS1      c_17_21   1
    RHS1      c_17_23   1
    RHS1      c_17_24   1
    RHS1      c_17_26   1
    RHS1      c_17_27   1
    RHS1      c_17_28   1
    RHS1      c_17_31   1
    RHS1      c_17_33   1
    RHS1      c_17_35   1
    RHS1      c_17_37   1
    RHS1      c_17_38   1
    RHS1      c_17_39   1
    RHS1      c_17_40   1
    RHS1      c_17_42   1
    RHS1      c_17_44   1
    RHS1      c_17_45   1
    RHS1      c_17_46   1
    RHS1      c_17_47   1
    RHS1      c_17_48   1
    RHS1      c_17_49   1
    RHS1      c_18_20   1
    RHS1      c_18_21   1
    RHS1      c_18_24   1
    RHS1      c_18_28   1
    RHS1      c_18_30   1
    RHS1      c_18_41   1
    RHS1      c_18_44   1
    RHS1      c_18_45   1
    RHS1      c_18_49   1
    RHS1      c_19_20   1
    RHS1      c_19_22   1
    RHS1      c_19_23   1
    RHS1      c_19_24   1
    RHS1      c_19_25   1
    RHS1      c_19_26   1
    RHS1      c_19_27   1
    RHS1      c_19_28   1
    RHS1      c_19_32   1
    RHS1      c_19_37   1
    RHS1      c_19_38   1
    RHS1      c_19_40   1
    RHS1      c_19_42   1
    RHS1      c_19_43   1
    RHS1      c_19_46   1
    RHS1      c_19_47   1
    RHS1      c_19_48   1
    RHS1      c_19_49   1
    RHS1      c_20_23   1
    RHS1      c_20_25   1
    RHS1      c_20_30   1
    RHS1      c_20_33   1
    RHS1      c_20_34   1
    RHS1      c_20_37   1
    RHS1      c_20_39   1
    RHS1      c_20_40   1
    RHS1      c_20_42   1
    RHS1      c_20_43   1
    RHS1      c_20_44   1
    RHS1      c_20_45   1
    RHS1      c_20_47   1
    RHS1      c_21_23   1
    RHS1      c_21_24   1
    RHS1      c_21_26   1
    RHS1      c_21_27   1
    RHS1      c_21_28   1
    RHS1      c_21_32   1
    RHS1      c_21_33   1
    RHS1      c_21_34   1
    RHS1      c_21_35   1
    RHS1      c_21_44   1
    RHS1      c_21_45   1
    RHS1      c_21_48   1
    RHS1      c_21_49   1
    RHS1      c_22_23   1
    RHS1      c_22_24   1
    RHS1      c_22_26   1
    RHS1      c_22_28   1
    RHS1      c_22_30   1
    RHS1      c_22_31   1
    RHS1      c_22_32   1
    RHS1      c_22_34   1
    RHS1      c_22_35   1
    RHS1      c_22_37   1
    RHS1      c_22_38   1
    RHS1      c_22_39   1
    RHS1      c_22_42   1
    RHS1      c_22_43   1
    RHS1      c_22_49   1
    RHS1      c_23_24   1
    RHS1      c_23_26   1
    RHS1      c_23_28   1
    RHS1      c_23_32   1
    RHS1      c_23_33   1
    RHS1      c_23_34   1
    RHS1      c_23_35   1
    RHS1      c_23_37   1
    RHS1      c_23_38   1
    RHS1      c_23_39   1
    RHS1      c_23_43   1
    RHS1      c_23_48   1
    RHS1      c_23_49   1
    RHS1      c_24_26   1
    RHS1      c_24_27   1
    RHS1      c_24_28   1
    RHS1      c_24_32   1
    RHS1      c_24_34   1
    RHS1      c_24_35   1
    RHS1      c_24_37   1
    RHS1      c_24_38   1
    RHS1      c_24_42   1
    RHS1      c_24_43   1
    RHS1      c_24_47   1
    RHS1      c_24_48   1
    RHS1      c_24_49   1
    RHS1      c_25_28   1
    RHS1      c_25_30   1
    RHS1      c_25_33   1
    RHS1      c_25_40   1
    RHS1      c_25_44   1
    RHS1      c_25_46   1
    RHS1      c_25_47   1
    RHS1      c_25_49   1
    RHS1      c_26_27   1
    RHS1      c_26_28   1
    RHS1      c_26_31   1
    RHS1      c_26_32   1
    RHS1      c_26_35   1
    RHS1      c_26_36   1
    RHS1      c_26_37   1
    RHS1      c_26_38   1
    RHS1      c_26_39   1
    RHS1      c_26_43   1
    RHS1      c_26_44   1
    RHS1      c_26_45   1
    RHS1      c_26_48   1
    RHS1      c_26_49   1
    RHS1      c_27_31   1
    RHS1      c_27_35   1
    RHS1      c_27_42   1
    RHS1      c_27_44   1
    RHS1      c_27_45   1
    RHS1      c_27_48   1
    RHS1      c_27_49   1
    RHS1      c_28_30   1
    RHS1      c_28_31   1
    RHS1      c_28_32   1
    RHS1      c_28_33   1
    RHS1      c_28_34   1
    RHS1      c_28_35   1
    RHS1      c_28_37   1
    RHS1      c_28_38   1
    RHS1      c_28_39   1
    RHS1      c_28_41   1
    RHS1      c_28_43   1
    RHS1      c_28_44   1
    RHS1      c_28_45   1
    RHS1      c_28_47   1
    RHS1      c_28_48   1
    RHS1      c_28_49   1
    RHS1      c_30_33   1
    RHS1      c_30_34   1
    RHS1      c_30_37   1
    RHS1      c_30_40   1
    RHS1      c_30_47   1
    RHS1      c_30_49   1
    RHS1      c_31_32   1
    RHS1      c_31_37   1
    RHS1      c_31_38   1
    RHS1      c_31_39   1
    RHS1      c_31_41   1
    RHS1      c_31_45   1
    RHS1      c_31_48   1
    RHS1      c_32_34   1
    RHS1      c_32_37   1
    RHS1      c_32_38   1
    RHS1      c_32_39   1
    RHS1      c_32_42   1
    RHS1      c_32_43   1
    RHS1      c_32_45   1
    RHS1      c_32_48   1
    RHS1      c_32_49   1
    RHS1      c_33_36   1
    RHS1      c_33_37   1
    RHS1      c_33_39   1
    RHS1      c_33_40   1
    RHS1      c_33_47   1
    RHS1      c_33_49   1
    RHS1      c_34_35   1
    RHS1      c_34_37   1
    RHS1      c_34_42   1
    RHS1      c_34_43   1
    RHS1      c_34_44   1
    RHS1      c_34_48   1
    RHS1      c_35_38   1
    RHS1      c_35_42   1
    RHS1      c_35_44   1
    RHS1      c_35_47   1
    RHS1      c_35_48   1
    RHS1      c_37_38   1
    RHS1      c_37_39   1
    RHS1      c_37_41   1
    RHS1      c_37_43   1
    RHS1      c_37_49   1
    RHS1      c_38_39   1
    RHS1      c_38_42   1
    RHS1      c_38_43   1
    RHS1      c_38_45   1
    RHS1      c_38_47   1
    RHS1      c_38_49   1
    RHS1      c_39_40   1
    RHS1      c_39_41   1
    RHS1      c_39_43   1
    RHS1      c_39_45   1
    RHS1      c_39_48   1
    RHS1      c_39_49   1
    RHS1      c_40_42   1
    RHS1      c_40_43   1
    RHS1      c_40_44   1
    RHS1      c_40_45   1
    RHS1      c_40_47   1
    RHS1      c_40_48   1
    RHS1      c_40_49   1
    RHS1      c_41_44   1
    RHS1      c_41_45   1
    RHS1      c_42_44   1
    RHS1      c_42_45   1
    RHS1      c_42_46   1
    RHS1      c_42_47   1
    RHS1      c_42_48   1
    RHS1      c_42_49   1
    RHS1      c_43_44   1
    RHS1      c_43_45   1
    RHS1      c_43_48   1
    RHS1      c_43_49   1
    RHS1      c_44_45   1
    RHS1      c_44_46   1
    RHS1      c_45_46   1
    RHS1      c_45_48   1
    RHS1      c_45_49   1
    RHS1      c_46_47   1
    RHS1      c_48_49   1
BOUNDS
 BV BND1      x[0]    
 BV BND1      x[1]    
 BV BND1      x[2]    
 BV BND1      x[3]    
 BV BND1      x[4]    
 BV BND1      x[5]    
 BV BND1      x[6]    
 BV BND1      x[7]    
 BV BND1      x[8]    
 BV BND1      x[9]    
 BV BND1      x[10]   
 BV BND1      x[11]   
 BV BND1      x[12]   
 BV BND1      x[13]   
 BV BND1      x[14]   
 BV BND1      x[15]   
 BV BND1      x[16]   
 BV BND1      x[17]   
 BV BND1      x[18]   
 BV BND1      x[19]   
 BV BND1      x[20]   
 BV BND1      x[21]   
 BV BND1      x[22]   
 BV BND1      x[23]   
 BV BND1      x[24]   
 BV BND1      x[25]   
 BV BND1      x[26]   
 BV BND1      x[27]   
 BV BND1      x[28]   
 BV BND1      x[29]   
 BV BND1      x[30]   
 BV BND1      x[31]   
 BV BND1      x[32]   
 BV BND1      x[33]   
 BV BND1      x[34]   
 BV BND1      x[35]   
 BV BND1      x[36]   
 BV BND1      x[37]   
 BV BND1      x[38]   
 BV BND1      x[39]   
 BV BND1      x[40]   
 BV BND1      x[41]   
 BV BND1      x[42]   
 BV BND1      x[43]   
 BV BND1      x[44]   
 BV BND1      x[45]   
 BV BND1      x[46]   
 BV BND1      x[47]   
 BV BND1      x[48]   
 BV BND1      x[49]   
ENDATA
