* Signature: 0xd0b48af4011444bf
NAME phylo_med
ROWS
 N  OBJ
 L  c_0_1   
 L  c_0_3   
 L  c_0_7   
 L  c_0_11  
 L  c_0_14  
 L  c_0_15  
 L  c_0_16  
 L  c_0_17  
 L  c_0_19  
 L  c_0_20  
 L  c_0_22  
 L  c_0_25  
 L  c_0_27  
 L  c_0_29  
 L  c_0_30  
 L  c_0_31  
 L  c_0_32  
 L  c_0_38  
 L  c_0_50  
 L  c_0_54  
 L  c_0_60  
 L  c_0_61  
 L  c_0_64  
 L  c_0_66  
 L  c_0_67  
 L  c_0_69  
 L  c_0_70  
 L  c_0_71  
 L  c_0_74  
 L  c_0_77  
 L  c_0_87  
 L  c_0_89  
 L  c_0_92  
 L  c_0_93  
 L  c_0_99  
 L  c_1_3   
 L  c_1_5   
 L  c_1_6   
 L  c_1_7   
 L  c_1_11  
 L  c_1_12  
 L  c_1_13  
 L  c_1_14  
 L  c_1_15  
 L  c_1_17  
 L  c_1_19  
 L  c_1_20  
 L  c_1_22  
 L  c_1_23  
 L  c_1_24  
 L  c_1_25  
 L  c_1_29  
 L  c_1_30  
 L  c_1_31  
 L  c_1_32  
 L  c_1_33  
 L  c_1_34  
 L  c_1_38  
 L  c_1_42  
 L  c_1_44  
 L  c_1_53  
 L  c_1_54  
 L  c_1_56  
 L  c_1_58  
 L  c_1_60  
 L  c_1_61  
 L  c_1_62  
 L  c_1_63  
 L  c_1_64  
 L  c_1_66  
 L  c_1_67  
 L  c_1_68  
 L  c_1_69  
 L  c_1_70  
 L  c_1_71  
 L  c_1_74  
 L  c_1_76  
 L  c_1_77  
 L  c_1_84  
 L  c_1_86  
 L  c_1_87  
 L  c_1_89  
 L  c_1_92  
 L  c_1_93  
 L  c_1_99  
 L  c_2_11  
 L  c_2_20  
 L  c_2_21  
 L  c_2_30  
 L  c_2_33  
 L  c_2_36  
 L  c_2_38  
 L  c_2_42  
 L  c_2_49  
 L  c_2_52  
 L  c_2_56  
 L  c_2_61  
 L  c_2_63  
 L  c_2_65  
 L  c_2_75  
 L  c_2_77  
 L  c_2_83  
 L  c_2_92  
 L  c_3_7   
 L  c_3_8   
 L  c_3_10  
 L  c_3_11  
 L  c_3_14  
 L  c_3_15  
 L  c_3_17  
 L  c_3_20  
 L  c_3_21  
 L  c_3_22  
 L  c_3_24  
 L  c_3_25  
 L  c_3_26  
 L  c_3_28  
 L  c_3_29  
 L  c_3_40  
 L  c_3_45  
 L  c_3_46  
 L  c_3_51  
 L  c_3_53  
 L  c_3_57  
 L  c_3_60  
 L  c_3_63  
 L  c_3_66  
 L  c_3_67  
 L  c_3_68  
 L  c_3_70  
 L  c_3_71  
 L  c_3_74  
 L  c_3_77  
 L  c_3_78  
 L  c_3_79  
 L  c_3_83  
 L  c_3_87  
 L  c_3_89  
 L  c_3_90  
 L  c_3_92  
 L  c_4_5   
 L  c_4_6   
 L  c_4_8   
 L  c_4_9   
 L  c_4_11  
 L  c_4_12  
 L  c_4_14  
 L  c_4_15  
 L  c_4_18  
 L  c_4_19  
 L  c_4_21  
 L  c_4_30  
 L  c_4_35  
 L  c_4_39  
 L  c_4_40  
 L  c_4_41  
 L  c_4_44  
 L  c_4_45  
 L  c_4_49  
 L  c_4_52  
 L  c_4_56  
 L  c_4_57  
 L  c_4_60  
 L  c_4_62  
 L  c_4_65  
 L  c_4_67  
 L  c_4_68  
 L  c_4_69  
 L  c_4_70  
 L  c_4_75  
 L  c_4_78  
 L  c_4_86  
 L  c_4_87  
 L  c_4_95  
 L  c_4_97  
 L  c_5_6   
 L  c_5_8   
 L  c_5_9   
 L  c_5_11  
 L  c_5_12  
 L  c_5_14  
 L  c_5_15  
 L  c_5_16  
 L  c_5_17  
 L  c_5_18  
 L  c_5_19  
 L  c_5_20  
 L  c_5_21  
 L  c_5_23  
 L  c_5_24  
 L  c_5_28  
 L  c_5_29  
 L  c_5_30  
 L  c_5_31  
 L  c_5_32  
 L  c_5_34  
 L  c_5_35  
 L  c_5_36  
 L  c_5_38  
 L  c_5_39  
 L  c_5_40  
 L  c_5_42  
 L  c_5_44  
 L  c_5_45  
 L  c_5_47  
 L  c_5_48  
 L  c_5_49  
 L  c_5_50  
 L  c_5_54  
 L  c_5_56  
 L  c_5_57  
 L  c_5_58  
 L  c_5_60  
 L  c_5_61  
 L  c_5_62  
 L  c_5_63  
 L  c_5_65  
 L  c_5_67  
 L  c_5_68  
 L  c_5_69  
 L  c_5_73  
 L  c_5_75  
 L  c_5_76  
 L  c_5_77  
 L  c_5_79  
 L  c_5_80  
 L  c_5_81  
 L  c_5_83  
 L  c_5_84  
 L  c_5_85  
 L  c_5_86  
 L  c_5_87  
 L  c_5_92  
 L  c_5_94  
 L  c_5_96  
 L  c_5_97  
 L  c_5_98  
 L  c_5_99  
 L  c_6_9   
 L  c_6_11  
 L  c_6_12  
 L  c_6_16  
 L  c_6_17  
 L  c_6_18  
 L  c_6_21  
 L  c_6_22  
 L  c_6_23  
 L  c_6_24  
 L  c_6_25  
 L  c_6_29  
 L  c_6_30  
 L  c_6_32  
 L  c_6_33  
 L  c_6_34  
 L  c_6_36  
 L  c_6_37  
 L  c_6_38  
 L  c_6_41  
 L  c_6_42  
 L  c_6_44  
 L  c_6_45  
 L  c_6_48  
 L  c_6_49  
 L  c_6_50  
 L  c_6_52  
 L  c_6_53  
 L  c_6_54  
 L  c_6_56  
 L  c_6_57  
 L  c_6_58  
 L  c_6_60  
 L  c_6_62  
 L  c_6_63  
 L  c_6_68  
 L  c_6_69  
 L  c_6_70  
 L  c_6_71  
 L  c_6_74  
 L  c_6_76  
 L  c_6_77  
 L  c_6_78  
 L  c_6_79  
 L  c_6_84  
 L  c_6_85  
 L  c_6_86  
 L  c_6_89  
 L  c_6_90  
 L  c_6_91  
 L  c_6_92  
 L  c_6_95  
 L  c_6_96  
 L  c_6_98  
 L  c_6_99  
 L  c_7_8   
 L  c_7_10  
 L  c_7_11  
 L  c_7_15  
 L  c_7_17  
 L  c_7_19  
 L  c_7_20  
 L  c_7_22  
 L  c_7_26  
 L  c_7_28  
 L  c_7_29  
 L  c_7_30  
 L  c_7_31  
 L  c_7_33  
 L  c_7_34  
 L  c_7_35  
 L  c_7_37  
 L  c_7_38  
 L  c_7_40  
 L  c_7_41  
 L  c_7_42  
 L  c_7_43  
 L  c_7_44  
 L  c_7_45  
 L  c_7_46  
 L  c_7_47  
 L  c_7_49  
 L  c_7_50  
 L  c_7_52  
 L  c_7_54  
 L  c_7_57  
 L  c_7_60  
 L  c_7_61  
 L  c_7_64  
 L  c_7_66  
 L  c_7_67  
 L  c_7_68  
 L  c_7_69  
 L  c_7_70  
 L  c_7_74  
 L  c_7_75  
 L  c_7_78  
 L  c_7_79  
 L  c_7_83  
 L  c_7_84  
 L  c_7_86  
 L  c_7_87  
 L  c_7_88  
 L  c_7_89  
 L  c_7_90  
 L  c_7_91  
 L  c_7_94  
 L  c_7_95  
 L  c_7_99  
 L  c_8_9   
 L  c_8_21  
 L  c_8_26  
 L  c_8_28  
 L  c_8_29  
 L  c_8_40  
 L  c_8_45  
 L  c_8_49  
 L  c_8_57  
 L  c_8_60  
 L  c_8_65  
 L  c_8_67  
 L  c_8_69  
 L  c_8_74  
 L  c_8_75  
 L  c_8_78  
 L  c_8_83  
 L  c_8_89  
 L  c_9_11  
 L  c_9_13  
 L  c_9_15  
 L  c_9_17  
 L  c_9_19  
 L  c_9_21  
 L  c_9_22  
 L  c_9_23  
 L  c_9_25  
 L  c_9_27  
 L  c_9_30  
 L  c_9_31  
 L  c_9_32  
 L  c_9_33  
 L  c_9_34  
 L  c_9_35  
 L  c_9_38  
 L  c_9_40  
 L  c_9_41  
 L  c_9_42  
 L  c_9_44  
 L  c_9_48  
 L  c_9_49  
 L  c_9_52  
 L  c_9_54  
 L  c_9_55  
 L  c_9_58  
 L  c_9_60  
 L  c_9_63  
 L  c_9_65  
 L  c_9_67  
 L  c_9_69  
 L  c_9_75  
 L  c_9_76  
 L  c_9_78  
 L  c_9_79  
 L  c_9_80  
 L  c_9_84  
 L  c_9_86  
 L  c_9_88  
 L  c_9_89  
 L  c_9_90  
 L  c_9_91  
 L  c_9_92  
 L  c_9_94  
 L  c_9_95  
 L  c_9_97  
 L  c_9_99  
 L  c_10_13 
 L  c_10_18 
 L  c_10_19 
 L  c_10_21 
 L  c_10_24 
 L  c_10_26 
 L  c_10_29 
 L  c_10_34 
 L  c_10_35 
 L  c_10_37 
 L  c_10_40 
 L  c_10_43 
 L  c_10_44 
 L  c_10_45 
 L  c_10_46 
 L  c_10_49 
 L  c_10_50 
 L  c_10_51 
 L  c_10_53 
 L  c_10_62 
 L  c_10_63 
 L  c_10_64 
 L  c_10_68 
 L  c_10_70 
 L  c_10_71 
 L  c_10_78 
 L  c_10_79 
 L  c_10_86 
 L  c_10_87 
 L  c_10_88 
 L  c_10_90 
 L  c_11_16 
 L  c_11_17 
 L  c_11_18 
 L  c_11_19 
 L  c_11_20 
 L  c_11_21 
 L  c_11_26 
 L  c_11_28 
 L  c_11_29 
 L  c_11_31 
 L  c_11_34 
 L  c_11_36 
 L  c_11_38 
 L  c_11_39 
 L  c_11_40 
 L  c_11_41 
 L  c_11_42 
 L  c_11_44 
 L  c_11_45 
 L  c_11_48 
 L  c_11_49 
 L  c_11_50 
 L  c_11_51 
 L  c_11_54 
 L  c_11_56 
 L  c_11_57 
 L  c_11_58 
 L  c_11_60 
 L  c_11_61 
 L  c_11_62 
 L  c_11_63 
 L  c_11_64 
 L  c_11_65 
 L  c_11_67 
 L  c_11_69 
 L  c_11_71 
 L  c_11_74 
 L  c_11_75 
 L  c_11_77 
 L  c_11_78 
 L  c_11_79 
 L  c_11_81 
 L  c_11_83 
 L  c_11_84 
 L  c_11_86 
 L  c_11_89 
 L  c_11_90 
 L  c_11_92 
 L  c_11_94 
 L  c_11_95 
 L  c_11_98 
 L  c_11_99 
 L  c_12_13 
 L  c_12_14 
 L  c_12_15 
 L  c_12_18 
 L  c_12_19 
 L  c_12_21 
 L  c_12_23 
 L  c_12_25 
 L  c_12_33 
 L  c_12_34 
 L  c_12_35 
 L  c_12_39 
 L  c_12_40 
 L  c_12_42 
 L  c_12_45 
 L  c_12_51 
 L  c_12_53 
 L  c_12_54 
 L  c_12_57 
 L  c_12_60 
 L  c_12_62 
 L  c_12_63 
 L  c_12_67 
 L  c_12_71 
 L  c_12_77 
 L  c_12_84 
 L  c_12_85 
 L  c_12_87 
 L  c_12_89 
 L  c_12_93 
 L  c_12_95 
 L  c_12_97 
 L  c_13_18 
 L  c_13_19 
 L  c_13_24 
 L  c_13_26 
 L  c_13_27 
 L  c_13_30 
 L  c_13_31 
 L  c_13_32 
 L  c_13_34 
 L  c_13_35 
 L  c_13_42 
 L  c_13_43 
 L  c_13_44 
 L  c_13_49 
 L  c_13_53 
 L  c_13_54 
 L  c_13_62 
 L  c_13_64 
 L  c_13_75 
 L  c_13_77 
 L  c_13_78 
 L  c_13_80 
 L  c_13_88 
 L  c_13_89 
 L  c_13_91 
 L  c_13_92 
 L  c_13_95 
 L  c_13_99 
 L  c_14_15 
 L  c_14_17 
 L  c_14_18 
 L  c_14_19 
 L  c_14_20 
 L  c_14_22 
 L  c_14_24 
 L  c_14_25 
 L  c_14_26 
 L  c_14_33 
 L  c_14_35 
 L  c_14_39 
 L  c_14_40 
 L  c_14_45 
 L  c_14_47 
 L  c_14_48 
 L  c_14_60 
 L  c_14_62 
 L  c_14_66 
 L  c_14_67 
 L  c_14_69 
 L  c_14_70 
 L  c_14_74 
 L  c_14_77 
 L  c_14_87 
 L  c_14_91 
 L  c_14_92 
 L  c_14_96 
 L  c_14_97 
 L  c_14_98 
 L  c_15_17 
 L  c_15_18 
 L  c_15_19 
 L  c_15_20 
 L  c_15_22 
 L  c_15_23 
 L  c_15_25 
 L  c_15_26 
 L  c_15_27 
 L  c_15_28 
 L  c_15_29 
 L  c_15_31 
 L  c_15_34 
 L  c_15_35 
 L  c_15_36 
 L  c_15_38 
 L  c_15_39 
 L  c_15_40 
 L  c_15_42 
 L  c_15_43 
 L  c_15_45 
 L  c_15_46 
 L  c_15_50 
 L  c_15_52 
 L  c_15_54 
 L  c_15_60 
 L  c_15_61 
 L  c_15_62 
 L  c_15_63 
 L  c_15_64 
 L  c_15_66 
 L  c_15_67 
 L  c_15_70 
 L  c_15_73 
 L  c_15_77 
 L  c_15_78 
 L  c_15_79 
 L  c_15_81 
 L  c_15_83 
 L  c_15_84 
 L  c_15_85 
 L  c_15_86 
 L  c_15_87 
 L  c_15_88 
 L  c_15_89 
 L  c_15_91 
 L  c_15_92 
 L  c_15_94 
 L  c_15_95 
 L  c_15_97 
 L  c_15_99 
 L  c_16_18 
 L  c_16_19 
 L  c_16_20 
 L  c_16_21 
 L  c_16_25 
 L  c_16_26 
 L  c_16_29 
 L  c_16_30 
 L  c_16_32 
 L  c_16_34 
 L  c_16_36 
 L  c_16_38 
 L  c_16_39 
 L  c_16_41 
 L  c_16_45 
 L  c_16_47 
 L  c_16_48 
 L  c_16_50 
 L  c_16_52 
 L  c_16_54 
 L  c_16_56 
 L  c_16_66 
 L  c_16_70 
 L  c_16_71 
 L  c_16_74 
 L  c_16_77 
 L  c_16_84 
 L  c_16_85 
 L  c_16_86 
 L  c_16_87 
 L  c_16_89 
 L  c_16_92 
 L  c_16_93 
 L  c_16_98 
 L  c_17_19 
 L  c_17_20 
 L  c_17_22 
 L  c_17_25 
 L  c_17_29 
 L  c_17_31 
 L  c_17_36 
 L  c_17_38 
 L  c_17_44 
 L  c_17_48 
 L  c_17_54 
 L  c_17_60 
 L  c_17_64 
 L  c_17_66 
 L  c_17_67 
 L  c_17_69 
 L  c_17_70 
 L  c_17_73 
 L  c_17_74 
 L  c_17_77 
 L  c_17_81 
 L  c_17_83 
 L  c_17_84 
 L  c_17_85 
 L  c_17_86 
 L  c_17_87 
 L  c_17_90 
 L  c_17_92 
 L  c_17_94 
 L  c_17_99 
 L  c_18_21 
 L  c_18_26 
 L  c_18_29 
 L  c_18_30 
 L  c_18_34 
 L  c_18_35 
 L  c_18_38 
 L  c_18_39 
 L  c_18_40 
 L  c_18_41 
 L  c_18_44 
 L  c_18_45 
 L  c_18_48 
 L  c_18_50 
 L  c_18_51 
 L  c_18_52 
 L  c_18_54 
 L  c_18_55 
 L  c_18_56 
 L  c_18_57 
 L  c_18_60 
 L  c_18_62 
 L  c_18_63 
 L  c_18_64 
 L  c_18_65 
 L  c_18_68 
 L  c_18_70 
 L  c_18_71 
 L  c_18_74 
 L  c_18_78 
 L  c_18_81 
 L  c_18_84 
 L  c_18_87 
 L  c_18_92 
 L  c_18_94 
 L  c_18_97 
 L  c_18_98 
 L  c_19_20 
 L  c_19_21 
 L  c_19_24 
 L  c_19_25 
 L  c_19_26 
 L  c_19_29 
 L  c_19_31 
 L  c_19_34 
 L  c_19_35 
 L  c_19_38 
 L  c_19_39 
 L  c_19_41 
 L  c_19_42 
 L  c_19_43 
 L  c_19_44 
 L  c_19_47 
 L  c_19_48 
 L  c_19_49 
 L  c_19_52 
 L  c_19_53 
 L  c_19_54 
 L  c_19_58 
 L  c_19_60 
 L  c_19_61 
 L  c_19_63 
 L  c_19_64 
 L  c_19_68 
 L  c_19_69 
 L  c_19_70 
 L  c_19_74 
 L  c_19_77 
 L  c_19_78 
 L  c_19_79 
 L  c_19_84 
 L  c_19_85 
 L  c_19_86 
 L  c_19_88 
 L  c_19_89 
 L  c_19_95 
 L  c_19_96 
 L  c_19_98 
 L  c_19_99 
 L  c_20_22 
 L  c_20_23 
 L  c_20_25 
 L  c_20_26 
 L  c_20_28 
 L  c_20_29 
 L  c_20_30 
 L  c_20_31 
 L  c_20_32 
 L  c_20_36 
 L  c_20_38 
 L  c_20_42 
 L  c_20_43 
 L  c_20_49 
 L  c_20_50 
 L  c_20_54 
 L  c_20_56 
 L  c_20_58 
 L  c_20_60 
 L  c_20_61 
 L  c_20_62 
 L  c_20_63 
 L  c_20_64 
 L  c_20_65 
 L  c_20_66 
 L  c_20_67 
 L  c_20_69 
 L  c_20_70 
 L  c_20_71 
 L  c_20_73 
 L  c_20_74 
 L  c_20_75 
 L  c_20_77 
 L  c_20_81 
 L  c_20_83 
 L  c_20_84 
 L  c_20_85 
 L  c_20_87 
 L  c_20_89 
 L  c_20_92 
 L  c_20_93 
 L  c_20_94 
 L  c_20_99 
 L  c_21_22 
 L  c_21_23 
 L  c_21_24 
 L  c_21_25 
 L  c_21_26 
 L  c_21_27 
 L  c_21_28 
 L  c_21_29 
 L  c_21_30 
 L  c_21_32 
 L  c_21_33 
 L  c_21_34 
 L  c_21_38 
 L  c_21_39 
 L  c_21_40 
 L  c_21_41 
 L  c_21_44 
 L  c_21_45 
 L  c_21_47 
 L  c_21_48 
 L  c_21_49 
 L  c_21_50 
 L  c_21_51 
 L  c_21_52 
 L  c_21_54 
 L  c_21_57 
 L  c_21_58 
 L  c_21_60 
 L  c_21_62 
 L  c_21_63 
 L  c_21_65 
 L  c_21_67 
 L  c_21_68 
 L  c_21_69 
 L  c_21_70 
 L  c_21_73 
 L  c_21_74 
 L  c_21_75 
 L  c_21_77 
 L  c_21_79 
 L  c_21_80 
 L  c_21_83 
 L  c_21_84 
 L  c_21_85 
 L  c_21_86 
 L  c_21_91 
 L  c_21_92 
 L  c_21_95 
 L  c_21_96 
 L  c_21_97 
 L  c_21_98 
 L  c_22_25 
 L  c_22_30 
 L  c_22_41 
 L  c_22_44 
 L  c_22_47 
 L  c_22_48 
 L  c_22_50 
 L  c_22_54 
 L  c_22_57 
 L  c_22_58 
 L  c_22_60 
 L  c_22_61 
 L  c_22_66 
 L  c_22_67 
 L  c_22_70 
 L  c_22_74 
 L  c_22_75 
 L  c_22_77 
 L  c_22_79 
 L  c_22_84 
 L  c_22_85 
 L  c_22_86 
 L  c_22_87 
 L  c_22_90 
 L  c_22_91 
 L  c_22_92 
 L  c_22_95 
 L  c_22_99 
 L  c_23_25 
 L  c_23_26 
 L  c_23_27 
 L  c_23_28 
 L  c_23_29 
 L  c_23_31 
 L  c_23_32 
 L  c_23_33 
 L  c_23_38 
 L  c_23_42 
 L  c_23_43 
 L  c_23_44 
 L  c_23_47 
 L  c_23_49 
 L  c_23_51 
 L  c_23_54 
 L  c_23_57 
 L  c_23_60 
 L  c_23_62 
 L  c_23_63 
 L  c_23_64 
 L  c_23_67 
 L  c_23_71 
 L  c_23_76 
 L  c_23_77 
 L  c_23_79 
 L  c_23_80 
 L  c_23_83 
 L  c_23_84 
 L  c_23_85 
 L  c_23_86 
 L  c_23_89 
 L  c_23_92 
 L  c_23_93 
 L  c_23_94 
 L  c_23_95 
 L  c_23_96 
 L  c_23_97 
 L  c_23_99 
 L  c_24_29 
 L  c_24_30 
 L  c_24_32 
 L  c_24_33 
 L  c_24_35 
 L  c_24_43 
 L  c_24_44 
 L  c_24_45 
 L  c_24_46 
 L  c_24_48 
 L  c_24_49 
 L  c_24_53 
 L  c_24_54 
 L  c_24_56 
 L  c_24_62 
 L  c_24_63 
 L  c_24_65 
 L  c_24_68 
 L  c_24_69 
 L  c_24_70 
 L  c_24_71 
 L  c_24_76 
 L  c_24_78 
 L  c_24_84 
 L  c_24_86 
 L  c_24_88 
 L  c_24_90 
 L  c_24_91 
 L  c_24_97 
 L  c_25_27 
 L  c_25_30 
 L  c_25_32 
 L  c_25_33 
 L  c_25_34 
 L  c_25_35 
 L  c_25_42 
 L  c_25_48 
 L  c_25_50 
 L  c_25_53 
 L  c_25_54 
 L  c_25_57 
 L  c_25_60 
 L  c_25_63 
 L  c_25_66 
 L  c_25_67 
 L  c_25_70 
 L  c_25_71 
 L  c_25_73 
 L  c_25_77 
 L  c_25_79 
 L  c_25_84 
 L  c_25_86 
 L  c_25_87 
 L  c_25_88 
 L  c_25_89 
 L  c_25_92 
 L  c_26_28 
 L  c_26_29 
 L  c_26_38 
 L  c_26_39 
 L  c_26_41 
 L  c_26_43 
 L  c_26_45 
 L  c_26_47 
 L  c_26_48 
 L  c_26_52 
 L  c_26_54 
 L  c_26_57 
 L  c_26_60 
 L  c_26_62 
 L  c_26_64 
 L  c_26_70 
 L  c_26_74 
 L  c_26_78 
 L  c_26_83 
 L  c_26_84 
 L  c_26_85 
 L  c_26_89 
 L  c_26_92 
 L  c_26_96 
 L  c_26_98 
 L  c_26_99 
 L  c_27_29 
 L  c_27_30 
 L  c_27_31 
 L  c_27_32 
 L  c_27_34 
 L  c_27_35 
 L  c_27_42 
 L  c_27_44 
 L  c_27_48 
 L  c_27_57 
 L  c_27_61 
 L  c_27_73 
 L  c_27_75 
 L  c_27_77 
 L  c_27_78 
 L  c_27_80 
 L  c_27_84 
 L  c_27_86 
 L  c_27_87 
 L  c_27_89 
 L  c_27_91 
 L  c_27_92 
 L  c_27_95 
 L  c_27_99 
 L  c_28_29 
 L  c_28_32 
 L  c_28_38 
 L  c_28_43 
 L  c_28_44 
 L  c_28_45 
 L  c_28_47 
 L  c_28_57 
 L  c_28_60 
 L  c_28_62 
 L  c_28_64 
 L  c_28_74 
 L  c_28_78 
 L  c_28_79 
 L  c_28_80 
 L  c_28_83 
 L  c_28_85 
 L  c_28_89 
 L  c_28_92 
 L  c_28_96 
 L  c_28_99 
 L  c_29_30 
 L  c_29_31 
 L  c_29_32 
 L  c_29_34 
 L  c_29_35 
 L  c_29_37 
 L  c_29_38 
 L  c_29_40 
 L  c_29_43 
 L  c_29_44 
 L  c_29_45 
 L  c_29_47 
 L  c_29_48 
 L  c_29_49 
 L  c_29_50 
 L  c_29_51 
 L  c_29_54 
 L  c_29_56 
 L  c_29_57 
 L  c_29_61 
 L  c_29_62 
 L  c_29_63 
 L  c_29_64 
 L  c_29_69 
 L  c_29_70 
 L  c_29_74 
 L  c_29_76 
 L  c_29_78 
 L  c_29_79 
 L  c_29_80 
 L  c_29_83 
 L  c_29_84 
 L  c_29_86 
 L  c_29_87 
 L  c_29_89 
 L  c_29_90 
 L  c_29_92 
 L  c_29_96 
 L  c_29_98 
 L  c_29_99 
 L  c_30_31 
 L  c_30_32 
 L  c_30_33 
 L  c_30_35 
 L  c_30_36 
 L  c_30_38 
 L  c_30_41 
 L  c_30_42 
 L  c_30_44 
 L  c_30_47 
 L  c_30_49 
 L  c_30_50 
 L  c_30_51 
 L  c_30_52 
 L  c_30_54 
 L  c_30_56 
 L  c_30_57 
 L  c_30_60 
 L  c_30_61 
 L  c_30_62 
 L  c_30_63 
 L  c_30_68 
 L  c_30_69 
 L  c_30_70 
 L  c_30_71 
 L  c_30_75 
 L  c_30_76 
 L  c_30_77 
 L  c_30_78 
 L  c_30_79 
 L  c_30_80 
 L  c_30_84 
 L  c_30_86 
 L  c_30_87 
 L  c_30_89 
 L  c_30_90 
 L  c_30_91 
 L  c_30_92 
 L  c_30_93 
 L  c_30_95 
 L  c_30_99 
 L  c_31_32 
 L  c_31_35 
 L  c_31_36 
 L  c_31_38 
 L  c_31_39 
 L  c_31_42 
 L  c_31_44 
 L  c_31_49 
 L  c_31_53 
 L  c_31_54 
 L  c_31_55 
 L  c_31_57 
 L  c_31_58 
 L  c_31_61 
 L  c_31_64 
 L  c_31_67 
 L  c_31_69 
 L  c_31_73 
 L  c_31_74 
 L  c_31_75 
 L  c_31_77 
 L  c_31_78 
 L  c_31_79 
 L  c_31_80 
 L  c_31_81 
 L  c_31_83 
 L  c_31_84 
 L  c_31_85 
 L  c_31_86 
 L  c_31_89 
 L  c_31_91 
 L  c_31_92 
 L  c_31_94 
 L  c_31_95 
 L  c_31_99 
 L  c_32_35 
 L  c_32_42 
 L  c_32_44 
 L  c_32_47 
 L  c_32_50 
 L  c_32_54 
 L  c_32_56 
 L  c_32_62 
 L  c_32_63 
 L  c_32_69 
 L  c_32_71 
 L  c_32_75 
 L  c_32_76 
 L  c_32_77 
 L  c_32_78 
 L  c_32_79 
 L  c_32_80 
 L  c_32_83 
 L  c_32_84 
 L  c_32_86 
 L  c_32_87 
 L  c_32_89 
 L  c_32_91 
 L  c_32_92 
 L  c_32_93 
 L  c_32_95 
 L  c_32_96 
 L  c_32_99 
 L  c_33_35 
 L  c_33_36 
 L  c_33_37 
 L  c_33_38 
 L  c_33_42 
 L  c_33_49 
 L  c_33_52 
 L  c_33_60 
 L  c_33_62 
 L  c_33_66 
 L  c_33_68 
 L  c_33_69 
 L  c_33_70 
 L  c_33_71 
 L  c_33_76 
 L  c_33_77 
 L  c_33_79 
 L  c_33_80 
 L  c_33_87 
 L  c_33_88 
 L  c_33_89 
 L  c_33_91 
 L  c_33_93 
 L  c_33_94 
 L  c_33_96 
 L  c_33_97 
 L  c_33_99 
 L  c_34_35 
 L  c_34_37 
 L  c_34_38 
 L  c_34_40 
 L  c_34_42 
 L  c_34_43 
 L  c_34_44 
 L  c_34_45 
 L  c_34_48 
 L  c_34_49 
 L  c_34_50 
 L  c_34_52 
 L  c_34_53 
 L  c_34_54 
 L  c_34_57 
 L  c_34_63 
 L  c_34_64 
 L  c_34_70 
 L  c_34_73 
 L  c_34_77 
 L  c_34_78 
 L  c_34_79 
 L  c_34_84 
 L  c_34_86 
 L  c_34_87 
 L  c_34_89 
 L  c_34_90 
 L  c_34_92 
 L  c_34_98 
 L  c_35_36 
 L  c_35_37 
 L  c_35_39 
 L  c_35_40 
 L  c_35_42 
 L  c_35_43 
 L  c_35_44 
 L  c_35_45 
 L  c_35_49 
 L  c_35_50 
 L  c_35_51 
 L  c_35_60 
 L  c_35_62 
 L  c_35_64 
 L  c_35_69 
 L  c_35_70 
 L  c_35_75 
 L  c_35_78 
 L  c_35_79 
 L  c_35_80 
 L  c_35_86 
 L  c_35_87 
 L  c_35_88 
 L  c_35_89 
 L  c_35_90 
 L  c_35_91 
 L  c_35_92 
 L  c_35_95 
 L  c_35_97 
 L  c_35_99 
 L  c_36_37 
 L  c_36_42 
 L  c_36_47 
 L  c_36_49 
 L  c_36_51 
 L  c_36_54 
 L  c_36_56 
 L  c_36_61 
 L  c_36_63 
 L  c_36_65 
 L  c_36_66 
 L  c_36_73 
 L  c_36_75 
 L  c_36_77 
 L  c_36_81 
 L  c_36_83 
 L  c_36_85 
 L  c_36_86 
 L  c_36_89 
 L  c_36_90 
 L  c_36_92 
 L  c_36_94 
 L  c_36_96 
 L  c_36_99 
 L  c_37_40 
 L  c_37_43 
 L  c_37_44 
 L  c_37_50 
 L  c_37_64 
 L  c_37_70 
 L  c_37_77 
 L  c_37_86 
 L  c_37_87 
 L  c_37_89 
 L  c_37_90 
 L  c_37_96 
 L  c_38_41 
 L  c_38_43 
 L  c_38_45 
 L  c_38_48 
 L  c_38_49 
 L  c_38_50 
 L  c_38_52 
 L  c_38_54 
 L  c_38_55 
 L  c_38_58 
 L  c_38_60 
 L  c_38_62 
 L  c_38_64 
 L  c_38_69 
 L  c_38_74 
 L  c_38_79 
 L  c_38_84 
 L  c_38_85 
 L  c_38_89 
 L  c_38_90 
 L  c_38_92 
 L  c_38_98 
 L  c_38_99 
 L  c_39_40 
 L  c_39_41 
 L  c_39_44 
 L  c_39_45 
 L  c_39_49 
 L  c_39_52 
 L  c_39_53 
 L  c_39_54 
 L  c_39_57 
 L  c_39_60 
 L  c_39_61 
 L  c_39_67 
 L  c_39_69 
 L  c_39_70 
 L  c_39_73 
 L  c_39_74 
 L  c_39_84 
 L  c_39_85 
 L  c_39_86 
 L  c_39_87 
 L  c_39_95 
 L  c_39_97 
 L  c_40_43 
 L  c_40_44 
 L  c_40_45 
 L  c_40_49 
 L  c_40_50 
 L  c_40_51 
 L  c_40_60 
 L  c_40_64 
 L  c_40_65 
 L  c_40_67 
 L  c_40_69 
 L  c_40_70 
 L  c_40_75 
 L  c_40_79 
 L  c_40_86 
 L  c_40_87 
 L  c_40_90 
 L  c_40_97 
 L  c_41_44 
 L  c_41_47 
 L  c_41_50 
 L  c_41_51 
 L  c_41_52 
 L  c_41_54 
 L  c_41_55 
 L  c_41_56 
 L  c_41_57 
 L  c_41_58 
 L  c_41_60 
 L  c_41_61 
 L  c_41_62 
 L  c_41_63 
 L  c_41_65 
 L  c_41_68 
 L  c_41_70 
 L  c_41_71 
 L  c_41_74 
 L  c_41_75 
 L  c_41_77 
 L  c_41_78 
 L  c_41_79 
 L  c_41_81 
 L  c_41_84 
 L  c_41_85 
 L  c_41_87 
 L  c_41_90 
 L  c_41_91 
 L  c_41_92 
 L  c_41_94 
 L  c_41_95 
 L  c_41_98 
 L  c_42_44 
 L  c_42_49 
 L  c_42_52 
 L  c_42_53 
 L  c_42_54 
 L  c_42_56 
 L  c_42_58 
 L  c_42_60 
 L  c_42_61 
 L  c_42_63 
 L  c_42_65 
 L  c_42_66 
 L  c_42_68 
 L  c_42_70 
 L  c_42_71 
 L  c_42_75 
 L  c_42_77 
 L  c_42_78 
 L  c_42_79 
 L  c_42_80 
 L  c_42_83 
 L  c_42_87 
 L  c_42_88 
 L  c_42_89 
 L  c_42_91 
 L  c_42_92 
 L  c_42_93 
 L  c_42_94 
 L  c_42_95 
 L  c_42_99 
 L  c_43_44 
 L  c_43_46 
 L  c_43_49 
 L  c_43_50 
 L  c_43_60 
 L  c_43_62 
 L  c_43_64 
 L  c_43_67 
 L  c_43_70 
 L  c_43_78 
 L  c_43_84 
 L  c_43_85 
 L  c_43_86 
 L  c_43_87 
 L  c_43_88 
 L  c_43_89 
 L  c_43_90 
 L  c_43_91 
 L  c_43_92 
 L  c_43_95 
 L  c_43_99 
 L  c_44_47 
 L  c_44_48 
 L  c_44_49 
 L  c_44_50 
 L  c_44_51 
 L  c_44_54 
 L  c_44_55 
 L  c_44_56 
 L  c_44_60 
 L  c_44_62 
 L  c_44_63 
 L  c_44_64 
 L  c_44_65 
 L  c_44_69 
 L  c_44_70 
 L  c_44_71 
 L  c_44_74 
 L  c_44_75 
 L  c_44_76 
 L  c_44_78 
 L  c_44_79 
 L  c_44_80 
 L  c_44_81 
 L  c_44_83 
 L  c_44_84 
 L  c_44_86 
 L  c_44_87 
 L  c_44_89 
 L  c_44_90 
 L  c_44_91 
 L  c_44_92 
 L  c_44_94 
 L  c_44_95 
 L  c_44_96 
 L  c_44_98 
 L  c_44_99 
 L  c_45_48 
 L  c_45_50 
 L  c_45_51 
 L  c_45_54 
 L  c_45_57 
 L  c_45_60 
 L  c_45_65 
 L  c_45_68 
 L  c_45_70 
 L  c_45_74 
 L  c_45_78 
 L  c_45_79 
 L  c_45_83 
 L  c_45_84 
 L  c_45_87 
 L  c_45_89 
 L  c_45_92 
 L  c_45_97 
 L  c_45_98 
 L  c_46_50 
 L  c_46_53 
 L  c_46_63 
 L  c_46_67 
 L  c_46_68 
 L  c_46_71 
 L  c_46_84 
 L  c_46_90 
 L  c_46_91 
 L  c_46_95 
 L  c_47_48 
 L  c_47_54 
 L  c_47_56 
 L  c_47_57 
 L  c_47_61 
 L  c_47_66 
 L  c_47_74 
 L  c_47_75 
 L  c_47_79 
 L  c_47_80 
 L  c_47_83 
 L  c_47_86 
 L  c_47_87 
 L  c_47_96 
 L  c_47_98 
 L  c_48_50 
 L  c_48_54 
 L  c_48_57 
 L  c_48_60 
 L  c_48_65 
 L  c_48_68 
 L  c_48_70 
 L  c_48_73 
 L  c_48_74 
 L  c_48_84 
 L  c_48_86 
 L  c_48_90 
 L  c_48_92 
 L  c_48_96 
 L  c_48_97 
 L  c_48_98 
 L  c_48_99 
 L  c_49_50 
 L  c_49_52 
 L  c_49_53 
 L  c_49_57 
 L  c_49_58 
 L  c_49_60 
 L  c_49_61 
 L  c_49_64 
 L  c_49_65 
 L  c_49_66 
 L  c_49_67 
 L  c_49_68 
 L  c_49_69 
 L  c_49_70 
 L  c_49_73 
 L  c_49_75 
 L  c_49_76 
 L  c_49_77 
 L  c_49_78 
 L  c_49_79 
 L  c_49_80 
 L  c_49_84 
 L  c_49_86 
 L  c_49_87 
 L  c_49_88 
 L  c_49_89 
 L  c_49_90 
 L  c_49_94 
 L  c_49_96 
 L  c_49_97 
 L  c_49_99 
 L  c_50_54 
 L  c_50_58 
 L  c_50_64 
 L  c_50_67 
 L  c_50_70 
 L  c_50_71 
 L  c_50_74 
 L  c_50_77 
 L  c_50_84 
 L  c_50_85 
 L  c_50_86 
 L  c_50_87 
 L  c_50_89 
 L  c_50_90 
 L  c_50_91 
 L  c_50_92 
 L  c_50_93 
 L  c_50_95 
 L  c_50_98 
 L  c_51_54 
 L  c_51_55 
 L  c_51_62 
 L  c_51_63 
 L  c_51_65 
 L  c_51_67 
 L  c_51_71 
 L  c_51_74 
 L  c_51_77 
 L  c_51_79 
 L  c_51_81 
 L  c_51_85 
 L  c_51_90 
 L  c_51_94 
 L  c_51_95 
 L  c_51_97 
 L  c_51_98 
 L  c_52_54 
 L  c_52_56 
 L  c_52_57 
 L  c_52_60 
 L  c_52_62 
 L  c_52_63 
 L  c_52_66 
 L  c_52_68 
 L  c_52_70 
 L  c_52_74 
 L  c_52_78 
 L  c_52_79 
 L  c_52_84 
 L  c_52_85 
 L  c_52_86 
 L  c_52_87 
 L  c_52_88 
 L  c_52_89 
 L  c_52_94 
 L  c_53_54 
 L  c_53_57 
 L  c_53_61 
 L  c_53_63 
 L  c_53_67 
 L  c_53_68 
 L  c_53_69 
 L  c_53_71 
 L  c_53_73 
 L  c_53_77 
 L  c_53_79 
 L  c_53_90 
 L  c_54_57 
 L  c_54_60 
 L  c_54_61 
 L  c_54_65 
 L  c_54_67 
 L  c_54_68 
 L  c_54_70 
 L  c_54_71 
 L  c_54_73 
 L  c_54_74 
 L  c_54_75 
 L  c_54_77 
 L  c_54_79 
 L  c_54_81 
 L  c_54_83 
 L  c_54_84 
 L  c_54_85 
 L  c_54_86 
 L  c_54_87 
 L  c_54_89 
 L  c_54_90 
 L  c_54_92 
 L  c_54_93 
 L  c_54_94 
 L  c_54_95 
 L  c_54_97 
 L  c_54_98 
 L  c_54_99 
 L  c_55_58 
 L  c_55_62 
 L  c_55_63 
 L  c_55_65 
 L  c_55_67 
 L  c_55_71 
 L  c_55_74 
 L  c_55_79 
 L  c_55_81 
 L  c_55_84 
 L  c_55_90 
 L  c_55_94 
 L  c_55_98 
 L  c_56_57 
 L  c_56_60 
 L  c_56_61 
 L  c_56_62 
 L  c_56_63 
 L  c_56_65 
 L  c_56_66 
 L  c_56_68 
 L  c_56_69 
 L  c_56_70 
 L  c_56_75 
 L  c_56_76 
 L  c_56_77 
 L  c_56_78 
 L  c_56_83 
 L  c_56_84 
 L  c_56_86 
 L  c_56_92 
 L  c_57_60 
 L  c_57_61 
 L  c_57_62 
 L  c_57_63 
 L  c_57_67 
 L  c_57_68 
 L  c_57_69 
 L  c_57_70 
 L  c_57_73 
 L  c_57_74 
 L  c_57_75 
 L  c_57_78 
 L  c_57_79 
 L  c_57_83 
 L  c_57_84 
 L  c_57_86 
 L  c_57_87 
 L  c_57_89 
 L  c_58_60 
 L  c_58_61 
 L  c_58_63 
 L  c_58_67 
 L  c_58_68 
 L  c_58_69 
 L  c_58_74 
 L  c_58_77 
 L  c_58_79 
 L  c_58_84 
 L  c_58_85 
 L  c_58_90 
 L  c_58_91 
 L  c_58_92 
 L  c_58_95 
 L  c_60_61 
 L  c_60_62 
 L  c_60_63 
 L  c_60_64 
 L  c_60_65 
 L  c_60_66 
 L  c_60_67 
 L  c_60_68 
 L  c_60_69 
 L  c_60_70 
 L  c_60_75 
 L  c_60_77 
 L  c_60_78 
 L  c_60_84 
 L  c_60_85 
 L  c_60_86 
 L  c_60_87 
 L  c_60_88 
 L  c_60_89 
 L  c_60_90 
 L  c_60_92 
 L  c_60_94 
 L  c_60_97 
 L  c_60_99 
 L  c_61_63 
 L  c_61_65 
 L  c_61_67 
 L  c_61_68 
 L  c_61_69 
 L  c_61_73 
 L  c_61_75 
 L  c_61_77 
 L  c_61_79 
 L  c_61_83 
 L  c_61_87 
 L  c_61_92 
 L  c_62_63 
 L  c_62_64 
 L  c_62_65 
 L  c_62_68 
 L  c_62_69 
 L  c_62_70 
 L  c_62_71 
 L  c_62_74 
 L  c_62_76 
 L  c_62_78 
 L  c_62_81 
 L  c_62_84 
 L  c_62_85 
 L  c_62_86 
 L  c_62_89 
 L  c_62_91 
 L  c_62_92 
 L  c_62_94 
 L  c_62_98 
 L  c_62_99 
 L  c_63_65 
 L  c_63_68 
 L  c_63_69 
 L  c_63_71 
 L  c_63_74 
 L  c_63_75 
 L  c_63_76 
 L  c_63_77 
 L  c_63_78 
 L  c_63_79 
 L  c_63_81 
 L  c_63_83 
 L  c_63_84 
 L  c_63_86 
 L  c_63_89 
 L  c_63_90 
 L  c_63_92 
 L  c_63_94 
 L  c_63_98 
 L  c_64_69 
 L  c_64_70 
 L  c_64_74 
 L  c_64_85 
 L  c_64_86 
 L  c_64_87 
 L  c_64_89 
 L  c_64_90 
 L  c_64_92 
 L  c_64_99 
 L  c_65_67 
 L  c_65_68 
 L  c_65_69 
 L  c_65_70 
 L  c_65_71 
 L  c_65_74 
 L  c_65_75 
 L  c_65_77 
 L  c_65_81 
 L  c_65_83 
 L  c_65_92 
 L  c_65_94 
 L  c_65_97 
 L  c_65_98 
 L  c_66_67 
 L  c_66_68 
 L  c_66_70 
 L  c_66_77 
 L  c_66_86 
 L  c_66_87 
 L  c_66_88 
 L  c_66_89 
 L  c_66_92 
 L  c_66_94 
 L  c_67_69 
 L  c_67_70 
 L  c_67_73 
 L  c_67_75 
 L  c_67_77 
 L  c_67_79 
 L  c_67_84 
 L  c_67_85 
 L  c_67_87 
 L  c_67_91 
 L  c_67_92 
 L  c_67_95 
 L  c_67_97 
 L  c_68_70 
 L  c_68_71 
 L  c_68_78 
 L  c_68_87 
 L  c_68_88 
 L  c_68_89 
 L  c_68_90 
 L  c_68_94 
 L  c_68_97 
 L  c_69_73 
 L  c_69_74 
 L  c_69_75 
 L  c_69_76 
 L  c_69_84 
 L  c_69_86 
 L  c_69_91 
 L  c_69_99 
 L  c_70_74 
 L  c_70_77 
 L  c_70_78 
 L  c_70_84 
 L  c_70_85 
 L  c_70_86 
 L  c_70_87 
 L  c_70_88 
 L  c_70_89 
 L  c_70_90 
 L  c_70_92 
 L  c_70_94 
 L  c_70_97 
 L  c_71_74 
 L  c_71_77 
 L  c_71_79 
 L  c_71_81 
 L  c_71_87 
 L  c_71_89 
 L  c_71_90 
 L  c_71_92 
 L  c_71_94 
 L  c_71_98 
 L  c_73_77 
 L  c_73_81 
 L  c_73_83 
 L  c_73_84 
 L  c_73_85 
 L  c_73_86 
 L  c_73_94 
 L  c_73_99 
 L  c_74_77 
 L  c_74_78 
 L  c_74_81 
 L  c_74_83 
 L  c_74_84 
 L  c_74_85 
 L  c_74_89 
 L  c_74_91 
 L  c_74_92 
 L  c_74_94 
 L  c_74_95 
 L  c_74_96 
 L  c_74_98 
 L  c_74_99 
 L  c_75_77 
 L  c_75_78 
 L  c_75_79 
 L  c_75_80 
 L  c_75_83 
 L  c_75_87 
 L  c_75_89 
 L  c_75_91 
 L  c_75_92 
 L  c_75_95 
 L  c_75_99 
 L  c_76_79 
 L  c_76_80 
 L  c_76_84 
 L  c_76_86 
 L  c_76_94 
 L  c_76_97 
 L  c_76_99 
 L  c_77_81 
 L  c_77_83 
 L  c_77_85 
 L  c_77_86 
 L  c_77_87 
 L  c_77_89 
 L  c_77_91 
 L  c_77_92 
 L  c_77_93 
 L  c_77_94 
 L  c_77_95 
 L  c_77_96 
 L  c_77_97 
 L  c_77_99 
 L  c_78_79 
 L  c_78_80 
 L  c_78_83 
 L  c_78_86 
 L  c_78_88 
 L  c_78_89 
 L  c_78_91 
 L  c_78_92 
 L  c_78_95 
 L  c_78_99 
 L  c_79_80 
 L  c_79_83 
 L  c_79_84 
 L  c_79_86 
 L  c_79_87 
 L  c_79_88 
 L  c_79_89 
 L  c_79_90 
 L  c_79_94 
 L  c_79_96 
 L  c_79_97 
 L  c_79_99 
 L  c_80_83 
 L  c_80_89 
 L  c_80_91 
 L  c_80_92 
 L  c_80_94 
 L  c_80_95 
 L  c_80_96 
 L  c_80_97 
 L  c_80_99 
 L  c_81_83 
 L  c_81_85 
 L  c_81_98 
 L  c_81_99 
 L  c_83_85 
 L  c_83_89 
 L  c_83_92 
 L  c_83_94 
 L  c_83_96 
 L  c_83_99 
 L  c_84_85 
 L  c_84_86 
 L  c_84_90 
 L  c_84_91 
 L  c_84_92 
 L  c_84_95 
 L  c_84_98 
 L  c_84_99 
 L  c_85_89 
 L  c_85_91 
 L  c_85_92 
 L  c_85_94 
 L  c_85_95 
 L  c_85_97 
 L  c_85_99 
 L  c_86_87 
 L  c_86_89 
 L  c_86_90 
 L  c_86_95 
 L  c_86_99 
 L  c_87_88 
 L  c_87_89 
 L  c_87_90 
 L  c_87_92 
 L  c_87_93 
 L  c_87_94 
 L  c_87_97 
 L  c_88_89 
 L  c_88_94 
 L  c_89_91 
 L  c_89_92 
 L  c_89_94 
 L  c_89_95 
 L  c_89_96 
 L  c_89_99 
 L  c_90_99 
 L  c_91_92 
 L  c_91_95 
 L  c_91_99 
 L  c_92_93 
 L  c_92_95 
 L  c_92_98 
 L  c_92_99 
 L  c_94_97 
 L  c_94_98 
 L  c_94_99 
 L  c_95_97 
 L  c_95_99 
 L  c_96_98 
 L  c_97_99 
COLUMNS
    MARKER    'MARKER'                 'INTORG'
    x[0]      OBJ       -4
    x[0]      c_0_1     1
    x[0]      c_0_3     1
    x[0]      c_0_7     1
    x[0]      c_0_11    1
    x[0]      c_0_14    1
    x[0]      c_0_15    1
    x[0]      c_0_16    1
    x[0]      c_0_17    1
    x[0]      c_0_19    1
    x[0]      c_0_20    1
    x[0]      c_0_22    1
    x[0]      c_0_25    1
    x[0]      c_0_27    1
    x[0]      c_0_29    1
    x[0]      c_0_30    1
    x[0]      c_0_31    1
    x[0]      c_0_32    1
    x[0]      c_0_38    1
    x[0]      c_0_50    1
    x[0]      c_0_54    1
    x[0]      c_0_60    1
    x[0]      c_0_61    1
    x[0]      c_0_64    1
    x[0]      c_0_66    1
    x[0]      c_0_67    1
    x[0]      c_0_69    1
    x[0]      c_0_70    1
    x[0]      c_0_71    1
    x[0]      c_0_74    1
    x[0]      c_0_77    1
    x[0]      c_0_87    1
    x[0]      c_0_89    1
    x[0]      c_0_92    1
    x[0]      c_0_93    1
    x[0]      c_0_99    1
    x[1]      OBJ       -5
    x[1]      c_0_1     1
    x[1]      c_1_3     1
    x[1]      c_1_5     1
    x[1]      c_1_6     1
    x[1]      c_1_7     1
    x[1]      c_1_11    1
    x[1]      c_1_12    1
    x[1]      c_1_13    1
    x[1]      c_1_14    1
    x[1]      c_1_15    1
    x[1]      c_1_17    1
    x[1]      c_1_19    1
    x[1]      c_1_20    1
    x[1]      c_1_22    1
    x[1]      c_1_23    1
    x[1]      c_1_24    1
    x[1]      c_1_25    1
    x[1]      c_1_29    1
    x[1]      c_1_30    1
    x[1]      c_1_31    1
    x[1]      c_1_32    1
    x[1]      c_1_33    1
    x[1]      c_1_34    1
    x[1]      c_1_38    1
    x[1]      c_1_42    1
    x[1]      c_1_44    1
    x[1]      c_1_53    1
    x[1]      c_1_54    1
    x[1]      c_1_56    1
    x[1]      c_1_58    1
    x[1]      c_1_60    1
    x[1]      c_1_61    1
    x[1]      c_1_62    1
    x[1]      c_1_63    1
    x[1]      c_1_64    1
    x[1]      c_1_66    1
    x[1]      c_1_67    1
    x[1]      c_1_68    1
    x[1]      c_1_69    1
    x[1]      c_1_70    1
    x[1]      c_1_71    1
    x[1]      c_1_74    1
    x[1]      c_1_76    1
    x[1]      c_1_77    1
    x[1]      c_1_84    1
    x[1]      c_1_86    1
    x[1]      c_1_87    1
    x[1]      c_1_89    1
    x[1]      c_1_92    1
    x[1]      c_1_93    1
    x[1]      c_1_99    1
    x[2]      OBJ       -5
    x[2]      c_2_11    1
    x[2]      c_2_20    1
    x[2]      c_2_21    1
    x[2]      c_2_30    1
    x[2]      c_2_33    1
    x[2]      c_2_36    1
    x[2]      c_2_38    1
    x[2]      c_2_42    1
    x[2]      c_2_49    1
    x[2]      c_2_52    1
    x[2]      c_2_56    1
    x[2]      c_2_61    1
    x[2]      c_2_63    1
    x[2]      c_2_65    1
    x[2]      c_2_75    1
    x[2]      c_2_77    1
    x[2]      c_2_83    1
    x[2]      c_2_92    1
    x[3]      OBJ       -1
    x[3]      c_0_3     1
    x[3]      c_1_3     1
    x[3]      c_3_7     1
    x[3]      c_3_8     1
    x[3]      c_3_10    1
    x[3]      c_3_11    1
    x[3]      c_3_14    1
    x[3]      c_3_15    1
    x[3]      c_3_17    1
    x[3]      c_3_20    1
    x[3]      c_3_21    1
    x[3]      c_3_22    1
    x[3]      c_3_24    1
    x[3]      c_3_25    1
    x[3]      c_3_26    1
    x[3]      c_3_28    1
    x[3]      c_3_29    1
    x[3]      c_3_40    1
    x[3]      c_3_45    1
    x[3]      c_3_46    1
    x[3]      c_3_51    1
    x[3]      c_3_53    1
    x[3]      c_3_57    1
    x[3]      c_3_60    1
    x[3]      c_3_63    1
    x[3]      c_3_66    1
    x[3]      c_3_67    1
    x[3]      c_3_68    1
    x[3]      c_3_70    1
    x[3]      c_3_71    1
    x[3]      c_3_74    1
    x[3]      c_3_77    1
    x[3]      c_3_78    1
    x[3]      c_3_79    1
    x[3]      c_3_83    1
    x[3]      c_3_87    1
    x[3]      c_3_89    1
    x[3]      c_3_90    1
    x[3]      c_3_92    1
    x[4]      OBJ       -6
    x[4]      c_4_5     1
    x[4]      c_4_6     1
    x[4]      c_4_8     1
    x[4]      c_4_9     1
    x[4]      c_4_11    1
    x[4]      c_4_12    1
    x[4]      c_4_14    1
    x[4]      c_4_15    1
    x[4]      c_4_18    1
    x[4]      c_4_19    1
    x[4]      c_4_21    1
    x[4]      c_4_30    1
    x[4]      c_4_35    1
    x[4]      c_4_39    1
    x[4]      c_4_40    1
    x[4]      c_4_41    1
    x[4]      c_4_44    1
    x[4]      c_4_45    1
    x[4]      c_4_49    1
    x[4]      c_4_52    1
    x[4]      c_4_56    1
    x[4]      c_4_57    1
    x[4]      c_4_60    1
    x[4]      c_4_62    1
    x[4]      c_4_65    1
    x[4]      c_4_67    1
    x[4]      c_4_68    1
    x[4]      c_4_69    1
    x[4]      c_4_70    1
    x[4]      c_4_75    1
    x[4]      c_4_78    1
    x[4]      c_4_86    1
    x[4]      c_4_87    1
    x[4]      c_4_95    1
    x[4]      c_4_97    1
    x[5]      OBJ       -2
    x[5]      c_1_5     1
    x[5]      c_4_5     1
    x[5]      c_5_6     1
    x[5]      c_5_8     1
    x[5]      c_5_9     1
    x[5]      c_5_11    1
    x[5]      c_5_12    1
    x[5]      c_5_14    1
    x[5]      c_5_15    1
    x[5]      c_5_16    1
    x[5]      c_5_17    1
    x[5]      c_5_18    1
    x[5]      c_5_19    1
    x[5]      c_5_20    1
    x[5]      c_5_21    1
    x[5]      c_5_23    1
    x[5]      c_5_24    1
    x[5]      c_5_28    1
    x[5]      c_5_29    1
    x[5]      c_5_30    1
    x[5]      c_5_31    1
    x[5]      c_5_32    1
    x[5]      c_5_34    1
    x[5]      c_5_35    1
    x[5]      c_5_36    1
    x[5]      c_5_38    1
    x[5]      c_5_39    1
    x[5]      c_5_40    1
    x[5]      c_5_42    1
    x[5]      c_5_44    1
    x[5]      c_5_45    1
    x[5]      c_5_47    1
    x[5]      c_5_48    1
    x[5]      c_5_49    1
    x[5]      c_5_50    1
    x[5]      c_5_54    1
    x[5]      c_5_56    1
    x[5]      c_5_57    1
    x[5]      c_5_58    1
    x[5]      c_5_60    1
    x[5]      c_5_61    1
    x[5]      c_5_62    1
    x[5]      c_5_63    1
    x[5]      c_5_65    1
    x[5]      c_5_67    1
    x[5]      c_5_68    1
    x[5]      c_5_69    1
    x[5]      c_5_73    1
    x[5]      c_5_75    1
    x[5]      c_5_76    1
    x[5]      c_5_77    1
    x[5]      c_5_79    1
    x[5]      c_5_80    1
    x[5]      c_5_81    1
    x[5]      c_5_83    1
    x[5]      c_5_84    1
    x[5]      c_5_85    1
    x[5]      c_5_86    1
    x[5]      c_5_87    1
    x[5]      c_5_92    1
    x[5]      c_5_94    1
    x[5]      c_5_96    1
    x[5]      c_5_97    1
    x[5]      c_5_98    1
    x[5]      c_5_99    1
    x[6]      OBJ       -8
    x[6]      c_1_6     1
    x[6]      c_4_6     1
    x[6]      c_5_6     1
    x[6]      c_6_9     1
    x[6]      c_6_11    1
    x[6]      c_6_12    1
    x[6]      c_6_16    1
    x[6]      c_6_17    1
    x[6]      c_6_18    1
    x[6]      c_6_21    1
    x[6]      c_6_22    1
    x[6]      c_6_23    1
    x[6]      c_6_24    1
    x[6]      c_6_25    1
    x[6]      c_6_29    1
    x[6]      c_6_30    1
    x[6]      c_6_32    1
    x[6]      c_6_33    1
    x[6]      c_6_34    1
    x[6]      c_6_36    1
    x[6]      c_6_37    1
    x[6]      c_6_38    1
    x[6]      c_6_41    1
    x[6]      c_6_42    1
    x[6]      c_6_44    1
    x[6]      c_6_45    1
    x[6]      c_6_48    1
    x[6]      c_6_49    1
    x[6]      c_6_50    1
    x[6]      c_6_52    1
    x[6]      c_6_53    1
    x[6]      c_6_54    1
    x[6]      c_6_56    1
    x[6]      c_6_57    1
    x[6]      c_6_58    1
    x[6]      c_6_60    1
    x[6]      c_6_62    1
    x[6]      c_6_63    1
    x[6]      c_6_68    1
    x[6]      c_6_69    1
    x[6]      c_6_70    1
    x[6]      c_6_71    1
    x[6]      c_6_74    1
    x[6]      c_6_76    1
    x[6]      c_6_77    1
    x[6]      c_6_78    1
    x[6]      c_6_79    1
    x[6]      c_6_84    1
    x[6]      c_6_85    1
    x[6]      c_6_86    1
    x[6]      c_6_89    1
    x[6]      c_6_90    1
    x[6]      c_6_91    1
    x[6]      c_6_92    1
    x[6]      c_6_95    1
    x[6]      c_6_96    1
    x[6]      c_6_98    1
    x[6]      c_6_99    1
    x[7]      OBJ       -7
    x[7]      c_0_7     1
    x[7]      c_1_7     1
    x[7]      c_3_7     1
    x[7]      c_7_8     1
    x[7]      c_7_10    1
    x[7]      c_7_11    1
    x[7]      c_7_15    1
    x[7]      c_7_17    1
    x[7]      c_7_19    1
    x[7]      c_7_20    1
    x[7]      c_7_22    1
    x[7]      c_7_26    1
    x[7]      c_7_28    1
    x[7]      c_7_29    1
    x[7]      c_7_30    1
    x[7]      c_7_31    1
    x[7]      c_7_33    1
    x[7]      c_7_34    1
    x[7]      c_7_35    1
    x[7]      c_7_37    1
    x[7]      c_7_38    1
    x[7]      c_7_40    1
    x[7]      c_7_41    1
    x[7]      c_7_42    1
    x[7]      c_7_43    1
    x[7]      c_7_44    1
    x[7]      c_7_45    1
    x[7]      c_7_46    1
    x[7]      c_7_47    1
    x[7]      c_7_49    1
    x[7]      c_7_50    1
    x[7]      c_7_52    1
    x[7]      c_7_54    1
    x[7]      c_7_57    1
    x[7]      c_7_60    1
    x[7]      c_7_61    1
    x[7]      c_7_64    1
    x[7]      c_7_66    1
    x[7]      c_7_67    1
    x[7]      c_7_68    1
    x[7]      c_7_69    1
    x[7]      c_7_70    1
    x[7]      c_7_74    1
    x[7]      c_7_75    1
    x[7]      c_7_78    1
    x[7]      c_7_79    1
    x[7]      c_7_83    1
    x[7]      c_7_84    1
    x[7]      c_7_86    1
    x[7]      c_7_87    1
    x[7]      c_7_88    1
    x[7]      c_7_89    1
    x[7]      c_7_90    1
    x[7]      c_7_91    1
    x[7]      c_7_94    1
    x[7]      c_7_95    1
    x[7]      c_7_99    1
    x[8]      OBJ       -10
    x[8]      c_3_8     1
    x[8]      c_4_8     1
    x[8]      c_5_8     1
    x[8]      c_7_8     1
    x[8]      c_8_9     1
    x[8]      c_8_21    1
    x[8]      c_8_26    1
    x[8]      c_8_28    1
    x[8]      c_8_29    1
    x[8]      c_8_40    1
    x[8]      c_8_45    1
    x[8]      c_8_49    1
    x[8]      c_8_57    1
    x[8]      c_8_60    1
    x[8]      c_8_65    1
    x[8]      c_8_67    1
    x[8]      c_8_69    1
    x[8]      c_8_74    1
    x[8]      c_8_75    1
    x[8]      c_8_78    1
    x[8]      c_8_83    1
    x[8]      c_8_89    1
    x[9]      OBJ       -8
    x[9]      c_4_9     1
    x[9]      c_5_9     1
    x[9]      c_6_9     1
    x[9]      c_8_9     1
    x[9]      c_9_11    1
    x[9]      c_9_13    1
    x[9]      c_9_15    1
    x[9]      c_9_17    1
    x[9]      c_9_19    1
    x[9]      c_9_21    1
    x[9]      c_9_22    1
    x[9]      c_9_23    1
    x[9]      c_9_25    1
    x[9]      c_9_27    1
    x[9]      c_9_30    1
    x[9]      c_9_31    1
    x[9]      c_9_32    1
    x[9]      c_9_33    1
    x[9]      c_9_34    1
    x[9]      c_9_35    1
    x[9]      c_9_38    1
    x[9]      c_9_40    1
    x[9]      c_9_41    1
    x[9]      c_9_42    1
    x[9]      c_9_44    1
    x[9]      c_9_48    1
    x[9]      c_9_49    1
    x[9]      c_9_52    1
    x[9]      c_9_54    1
    x[9]      c_9_55    1
    x[9]      c_9_58    1
    x[9]      c_9_60    1
    x[9]      c_9_63    1
    x[9]      c_9_65    1
    x[9]      c_9_67    1
    x[9]      c_9_69    1
    x[9]      c_9_75    1
    x[9]      c_9_76    1
    x[9]      c_9_78    1
    x[9]      c_9_79    1
    x[9]      c_9_80    1
    x[9]      c_9_84    1
    x[9]      c_9_86    1
    x[9]      c_9_88    1
    x[9]      c_9_89    1
    x[9]      c_9_90    1
    x[9]      c_9_91    1
    x[9]      c_9_92    1
    x[9]      c_9_94    1
    x[9]      c_9_95    1
    x[9]      c_9_97    1
    x[9]      c_9_99    1
    x[10]     OBJ       -4
    x[10]     c_3_10    1
    x[10]     c_7_10    1
    x[10]     c_10_13   1
    x[10]     c_10_18   1
    x[10]     c_10_19   1
    x[10]     c_10_21   1
    x[10]     c_10_24   1
    x[10]     c_10_26   1
    x[10]     c_10_29   1
    x[10]     c_10_34   1
    x[10]     c_10_35   1
    x[10]     c_10_37   1
    x[10]     c_10_40   1
    x[10]     c_10_43   1
    x[10]     c_10_44   1
    x[10]     c_10_45   1
    x[10]     c_10_46   1
    x[10]     c_10_49   1
    x[10]     c_10_50   1
    x[10]     c_10_51   1
    x[10]     c_10_53   1
    x[10]     c_10_62   1
    x[10]     c_10_63   1
    x[10]     c_10_64   1
    x[10]     c_10_68   1
    x[10]     c_10_70   1
    x[10]     c_10_71   1
    x[10]     c_10_78   1
    x[10]     c_10_79   1
    x[10]     c_10_86   1
    x[10]     c_10_87   1
    x[10]     c_10_88   1
    x[10]     c_10_90   1
    x[11]     OBJ       -10
    x[11]     c_0_11    1
    x[11]     c_1_11    1
    x[11]     c_2_11    1
    x[11]     c_3_11    1
    x[11]     c_4_11    1
    x[11]     c_5_11    1
    x[11]     c_6_11    1
    x[11]     c_7_11    1
    x[11]     c_9_11    1
    x[11]     c_11_16   1
    x[11]     c_11_17   1
    x[11]     c_11_18   1
    x[11]     c_11_19   1
    x[11]     c_11_20   1
    x[11]     c_11_21   1
    x[11]     c_11_26   1
    x[11]     c_11_28   1
    x[11]     c_11_29   1
    x[11]     c_11_31   1
    x[11]     c_11_34   1
    x[11]     c_11_36   1
    x[11]     c_11_38   1
    x[11]     c_11_39   1
    x[11]     c_11_40   1
    x[11]     c_11_41   1
    x[11]     c_11_42   1
    x[11]     c_11_44   1
    x[11]     c_11_45   1
    x[11]     c_11_48   1
    x[11]     c_11_49   1
    x[11]     c_11_50   1
    x[11]     c_11_51   1
    x[11]     c_11_54   1
    x[11]     c_11_56   1
    x[11]     c_11_57   1
    x[11]     c_11_58   1
    x[11]     c_11_60   1
    x[11]     c_11_61   1
    x[11]     c_11_62   1
    x[11]     c_11_63   1
    x[11]     c_11_64   1
    x[11]     c_11_65   1
    x[11]     c_11_67   1
    x[11]     c_11_69   1
    x[11]     c_11_71   1
    x[11]     c_11_74   1
    x[11]     c_11_75   1
    x[11]     c_11_77   1
    x[11]     c_11_78   1
    x[11]     c_11_79   1
    x[11]     c_11_81   1
    x[11]     c_11_83   1
    x[11]     c_11_84   1
    x[11]     c_11_86   1
    x[11]     c_11_89   1
    x[11]     c_11_90   1
    x[11]     c_11_92   1
    x[11]     c_11_94   1
    x[11]     c_11_95   1
    x[11]     c_11_98   1
    x[11]     c_11_99   1
    x[12]     OBJ       -5
    x[12]     c_1_12    1
    x[12]     c_4_12    1
    x[12]     c_5_12    1
    x[12]     c_6_12    1
    x[12]     c_12_13   1
    x[12]     c_12_14   1
    x[12]     c_12_15   1
    x[12]     c_12_18   1
    x[12]     c_12_19   1
    x[12]     c_12_21   1
    x[12]     c_12_23   1
    x[12]     c_12_25   1
    x[12]     c_12_33   1
    x[12]     c_12_34   1
    x[12]     c_12_35   1
    x[12]     c_12_39   1
    x[12]     c_12_40   1
    x[12]     c_12_42   1
    x[12]     c_12_45   1
    x[12]     c_12_51   1
    x[12]     c_12_53   1
    x[12]     c_12_54   1
    x[12]     c_12_57   1
    x[12]     c_12_60   1
    x[12]     c_12_62   1
    x[12]     c_12_63   1
    x[12]     c_12_67   1
    x[12]     c_12_71   1
    x[12]     c_12_77   1
    x[12]     c_12_84   1
    x[12]     c_12_85   1
    x[12]     c_12_87   1
    x[12]     c_12_89   1
    x[12]     c_12_93   1
    x[12]     c_12_95   1
    x[12]     c_12_97   1
    x[13]     OBJ       -4
    x[13]     c_1_13    1
    x[13]     c_9_13    1
    x[13]     c_10_13   1
    x[13]     c_12_13   1
    x[13]     c_13_18   1
    x[13]     c_13_19   1
    x[13]     c_13_24   1
    x[13]     c_13_26   1
    x[13]     c_13_27   1
    x[13]     c_13_30   1
    x[13]     c_13_31   1
    x[13]     c_13_32   1
    x[13]     c_13_34   1
    x[13]     c_13_35   1
    x[13]     c_13_42   1
    x[13]     c_13_43   1
    x[13]     c_13_44   1
    x[13]     c_13_49   1
    x[13]     c_13_53   1
    x[13]     c_13_54   1
    x[13]     c_13_62   1
    x[13]     c_13_64   1
    x[13]     c_13_75   1
    x[13]     c_13_77   1
    x[13]     c_13_78   1
    x[13]     c_13_80   1
    x[13]     c_13_88   1
    x[13]     c_13_89   1
    x[13]     c_13_91   1
    x[13]     c_13_92   1
    x[13]     c_13_95   1
    x[13]     c_13_99   1
    x[14]     OBJ       -10
    x[14]     c_0_14    1
    x[14]     c_1_14    1
    x[14]     c_3_14    1
    x[14]     c_4_14    1
    x[14]     c_5_14    1
    x[14]     c_12_14   1
    x[14]     c_14_15   1
    x[14]     c_14_17   1
    x[14]     c_14_18   1
    x[14]     c_14_19   1
    x[14]     c_14_20   1
    x[14]     c_14_22   1
    x[14]     c_14_24   1
    x[14]     c_14_25   1
    x[14]     c_14_26   1
    x[14]     c_14_33   1
    x[14]     c_14_35   1
    x[14]     c_14_39   1
    x[14]     c_14_40   1
    x[14]     c_14_45   1
    x[14]     c_14_47   1
    x[14]     c_14_48   1
    x[14]     c_14_60   1
    x[14]     c_14_62   1
    x[14]     c_14_66   1
    x[14]     c_14_67   1
    x[14]     c_14_69   1
    x[14]     c_14_70   1
    x[14]     c_14_74   1
    x[14]     c_14_77   1
    x[14]     c_14_87   1
    x[14]     c_14_91   1
    x[14]     c_14_92   1
    x[14]     c_14_96   1
    x[14]     c_14_97   1
    x[14]     c_14_98   1
    x[15]     OBJ       -4
    x[15]     c_0_15    1
    x[15]     c_1_15    1
    x[15]     c_3_15    1
    x[15]     c_4_15    1
    x[15]     c_5_15    1
    x[15]     c_7_15    1
    x[15]     c_9_15    1
    x[15]     c_12_15   1
    x[15]     c_14_15   1
    x[15]     c_15_17   1
    x[15]     c_15_18   1
    x[15]     c_15_19   1
    x[15]     c_15_20   1
    x[15]     c_15_22   1
    x[15]     c_15_23   1
    x[15]     c_15_25   1
    x[15]     c_15_26   1
    x[15]     c_15_27   1
    x[15]     c_15_28   1
    x[15]     c_15_29   1
    x[15]     c_15_31   1
    x[15]     c_15_34   1
    x[15]     c_15_35   1
    x[15]     c_15_36   1
    x[15]     c_15_38   1
    x[15]     c_15_39   1
    x[15]     c_15_40   1
    x[15]     c_15_42   1
    x[15]     c_15_43   1
    x[15]     c_15_45   1
    x[15]     c_15_46   1
    x[15]     c_15_50   1
    x[15]     c_15_52   1
    x[15]     c_15_54   1
    x[15]     c_15_60   1
    x[15]     c_15_61   1
    x[15]     c_15_62   1
    x[15]     c_15_63   1
    x[15]     c_15_64   1
    x[15]     c_15_66   1
    x[15]     c_15_67   1
    x[15]     c_15_70   1
    x[15]     c_15_73   1
    x[15]     c_15_77   1
    x[15]     c_15_78   1
    x[15]     c_15_79   1
    x[15]     c_15_81   1
    x[15]     c_15_83   1
    x[15]     c_15_84   1
    x[15]     c_15_85   1
    x[15]     c_15_86   1
    x[15]     c_15_87   1
    x[15]     c_15_88   1
    x[15]     c_15_89   1
    x[15]     c_15_91   1
    x[15]     c_15_92   1
    x[15]     c_15_94   1
    x[15]     c_15_95   1
    x[15]     c_15_97   1
    x[15]     c_15_99   1
    x[16]     OBJ       -1
    x[16]     c_0_16    1
    x[16]     c_5_16    1
    x[16]     c_6_16    1
    x[16]     c_11_16   1
    x[16]     c_16_18   1
    x[16]     c_16_19   1
    x[16]     c_16_20   1
    x[16]     c_16_21   1
    x[16]     c_16_25   1
    x[16]     c_16_26   1
    x[16]     c_16_29   1
    x[16]     c_16_30   1
    x[16]     c_16_32   1
    x[16]     c_16_34   1
    x[16]     c_16_36   1
    x[16]     c_16_38   1
    x[16]     c_16_39   1
    x[16]     c_16_41   1
    x[16]     c_16_45   1
    x[16]     c_16_47   1
    x[16]     c_16_48   1
    x[16]     c_16_50   1
    x[16]     c_16_52   1
    x[16]     c_16_54   1
    x[16]     c_16_56   1
    x[16]     c_16_66   1
    x[16]     c_16_70   1
    x[16]     c_16_71   1
    x[16]     c_16_74   1
    x[16]     c_16_77   1
    x[16]     c_16_84   1
    x[16]     c_16_85   1
    x[16]     c_16_86   1
    x[16]     c_16_87   1
    x[16]     c_16_89   1
    x[16]     c_16_92   1
    x[16]     c_16_93   1
    x[16]     c_16_98   1
    x[17]     OBJ       -5
    x[17]     c_0_17    1
    x[17]     c_1_17    1
    x[17]     c_3_17    1
    x[17]     c_5_17    1
    x[17]     c_6_17    1
    x[17]     c_7_17    1
    x[17]     c_9_17    1
    x[17]     c_11_17   1
    x[17]     c_14_17   1
    x[17]     c_15_17   1
    x[17]     c_17_19   1
    x[17]     c_17_20   1
    x[17]     c_17_22   1
    x[17]     c_17_25   1
    x[17]     c_17_29   1
    x[17]     c_17_31   1
    x[17]     c_17_36   1
    x[17]     c_17_38   1
    x[17]     c_17_44   1
    x[17]     c_17_48   1
    x[17]     c_17_54   1
    x[17]     c_17_60   1
    x[17]     c_17_64   1
    x[17]     c_17_66   1
    x[17]     c_17_67   1
    x[17]     c_17_69   1
    x[17]     c_17_70   1
    x[17]     c_17_73   1
    x[17]     c_17_74   1
    x[17]     c_17_77   1
    x[17]     c_17_81   1
    x[17]     c_17_83   1
    x[17]     c_17_84   1
    x[17]     c_17_85   1
    x[17]     c_17_86   1
    x[17]     c_17_87   1
    x[17]     c_17_90   1
    x[17]     c_17_92   1
    x[17]     c_17_94   1
    x[17]     c_17_99   1
    x[18]     OBJ       -8
    x[18]     c_4_18    1
    x[18]     c_5_18    1
    x[18]     c_6_18    1
    x[18]     c_10_18   1
    x[18]     c_11_18   1
    x[18]     c_12_18   1
    x[18]     c_13_18   1
    x[18]     c_14_18   1
    x[18]     c_15_18   1
    x[18]     c_16_18   1
    x[18]     c_18_21   1
    x[18]     c_18_26   1
    x[18]     c_18_29   1
    x[18]     c_18_30   1
    x[18]     c_18_34   1
    x[18]     c_18_35   1
    x[18]     c_18_38   1
    x[18]     c_18_39   1
    x[18]     c_18_40   1
    x[18]     c_18_41   1
    x[18]     c_18_44   1
    x[18]     c_18_45   1
    x[18]     c_18_48   1
    x[18]     c_18_50   1
    x[18]     c_18_51   1
    x[18]     c_18_52   1
    x[18]     c_18_54   1
    x[18]     c_18_55   1
    x[18]     c_18_56   1
    x[18]     c_18_57   1
    x[18]     c_18_60   1
    x[18]     c_18_62   1
    x[18]     c_18_63   1
    x[18]     c_18_64   1
    x[18]     c_18_65   1
    x[18]     c_18_68   1
    x[18]     c_18_70   1
    x[18]     c_18_71   1
    x[18]     c_18_74   1
    x[18]     c_18_78   1
    x[18]     c_18_81   1
    x[18]     c_18_84   1
    x[18]     c_18_87   1
    x[18]     c_18_92   1
    x[18]     c_18_94   1
    x[18]     c_18_97   1
    x[18]     c_18_98   1
    x[19]     OBJ       -2
    x[19]     c_0_19    1
    x[19]     c_1_19    1
    x[19]     c_4_19    1
    x[19]     c_5_19    1
    x[19]     c_7_19    1
    x[19]     c_9_19    1
    x[19]     c_10_19   1
    x[19]     c_11_19   1
    x[19]     c_12_19   1
    x[19]     c_13_19   1
    x[19]     c_14_19   1
    x[19]     c_15_19   1
    x[19]     c_16_19   1
    x[19]     c_17_19   1
    x[19]     c_19_20   1
    x[19]     c_19_21   1
    x[19]     c_19_24   1
    x[19]     c_19_25   1
    x[19]     c_19_26   1
    x[19]     c_19_29   1
    x[19]     c_19_31   1
    x[19]     c_19_34   1
    x[19]     c_19_35   1
    x[19]     c_19_38   1
    x[19]     c_19_39   1
    x[19]     c_19_41   1
    x[19]     c_19_42   1
    x[19]     c_19_43   1
    x[19]     c_19_44   1
    x[19]     c_19_47   1
    x[19]     c_19_48   1
    x[19]     c_19_49   1
    x[19]     c_19_52   1
    x[19]     c_19_53   1
    x[19]     c_19_54   1
    x[19]     c_19_58   1
    x[19]     c_19_60   1
    x[19]     c_19_61   1
    x[19]     c_19_63   1
    x[19]     c_19_64   1
    x[19]     c_19_68   1
    x[19]     c_19_69   1
    x[19]     c_19_70   1
    x[19]     c_19_74   1
    x[19]     c_19_77   1
    x[19]     c_19_78   1
    x[19]     c_19_79   1
    x[19]     c_19_84   1
    x[19]     c_19_85   1
    x[19]     c_19_86   1
    x[19]     c_19_88   1
    x[19]     c_19_89   1
    x[19]     c_19_95   1
    x[19]     c_19_96   1
    x[19]     c_19_98   1
    x[19]     c_19_99   1
    x[20]     OBJ       -5
    x[20]     c_0_20    1
    x[20]     c_1_20    1
    x[20]     c_2_20    1
    x[20]     c_3_20    1
    x[20]     c_5_20    1
    x[20]     c_7_20    1
    x[20]     c_11_20   1
    x[20]     c_14_20   1
    x[20]     c_15_20   1
    x[20]     c_16_20   1
    x[20]     c_17_20   1
    x[20]     c_19_20   1
    x[20]     c_20_22   1
    x[20]     c_20_23   1
    x[20]     c_20_25   1
    x[20]     c_20_26   1
    x[20]     c_20_28   1
    x[20]     c_20_29   1
    x[20]     c_20_30   1
    x[20]     c_20_31   1
    x[20]     c_20_32   1
    x[20]     c_20_36   1
    x[20]     c_20_38   1
    x[20]     c_20_42   1
    x[20]     c_20_43   1
    x[20]     c_20_49   1
    x[20]     c_20_50   1
    x[20]     c_20_54   1
    x[20]     c_20_56   1
    x[20]     c_20_58   1
    x[20]     c_20_60   1
    x[20]     c_20_61   1
    x[20]     c_20_62   1
    x[20]     c_20_63   1
    x[20]     c_20_64   1
    x[20]     c_20_65   1
    x[20]     c_20_66   1
    x[20]     c_20_67   1
    x[20]     c_20_69   1
    x[20]     c_20_70   1
    x[20]     c_20_71   1
    x[20]     c_20_73   1
    x[20]     c_20_74   1
    x[20]     c_20_75   1
    x[20]     c_20_77   1
    x[20]     c_20_81   1
    x[20]     c_20_83   1
    x[20]     c_20_84   1
    x[20]     c_20_85   1
    x[20]     c_20_87   1
    x[20]     c_20_89   1
    x[20]     c_20_92   1
    x[20]     c_20_93   1
    x[20]     c_20_94   1
    x[20]     c_20_99   1
    x[21]     OBJ       -2
    x[21]     c_2_21    1
    x[21]     c_3_21    1
    x[21]     c_4_21    1
    x[21]     c_5_21    1
    x[21]     c_6_21    1
    x[21]     c_8_21    1
    x[21]     c_9_21    1
    x[21]     c_10_21   1
    x[21]     c_11_21   1
    x[21]     c_12_21   1
    x[21]     c_16_21   1
    x[21]     c_18_21   1
    x[21]     c_19_21   1
    x[21]     c_21_22   1
    x[21]     c_21_23   1
    x[21]     c_21_24   1
    x[21]     c_21_25   1
    x[21]     c_21_26   1
    x[21]     c_21_27   1
    x[21]     c_21_28   1
    x[21]     c_21_29   1
    x[21]     c_21_30   1
    x[21]     c_21_32   1
    x[21]     c_21_33   1
    x[21]     c_21_34   1
    x[21]     c_21_38   1
    x[21]     c_21_39   1
    x[21]     c_21_40   1
    x[21]     c_21_41   1
    x[21]     c_21_44   1
    x[21]     c_21_45   1
    x[21]     c_21_47   1
    x[21]     c_21_48   1
    x[21]     c_21_49   1
    x[21]     c_21_50   1
    x[21]     c_21_51   1
    x[21]     c_21_52   1
    x[21]     c_21_54   1
    x[21]     c_21_57   1
    x[21]     c_21_58   1
    x[21]     c_21_60   1
    x[21]     c_21_62   1
    x[21]     c_21_63   1
    x[21]     c_21_65   1
    x[21]     c_21_67   1
    x[21]     c_21_68   1
    x[21]     c_21_69   1
    x[21]     c_21_70   1
    x[21]     c_21_73   1
    x[21]     c_21_74   1
    x[21]     c_21_75   1
    x[21]     c_21_77   1
    x[21]     c_21_79   1
    x[21]     c_21_80   1
    x[21]     c_21_83   1
    x[21]     c_21_84   1
    x[21]     c_21_85   1
    x[21]     c_21_86   1
    x[21]     c_21_91   1
    x[21]     c_21_92   1
    x[21]     c_21_95   1
    x[21]     c_21_96   1
    x[21]     c_21_97   1
    x[21]     c_21_98   1
    x[22]     OBJ       -7
    x[22]     c_0_22    1
    x[22]     c_1_22    1
    x[22]     c_3_22    1
    x[22]     c_6_22    1
    x[22]     c_7_22    1
    x[22]     c_9_22    1
    x[22]     c_14_22   1
    x[22]     c_15_22   1
    x[22]     c_17_22   1
    x[22]     c_20_22   1
    x[22]     c_21_22   1
    x[22]     c_22_25   1
    x[22]     c_22_30   1
    x[22]     c_22_41   1
    x[22]     c_22_44   1
    x[22]     c_22_47   1
    x[22]     c_22_48   1
    x[22]     c_22_50   1
    x[22]     c_22_54   1
    x[22]     c_22_57   1
    x[22]     c_22_58   1
    x[22]     c_22_60   1
    x[22]     c_22_61   1
    x[22]     c_22_66   1
    x[22]     c_22_67   1
    x[22]     c_22_70   1
    x[22]     c_22_74   1
    x[22]     c_22_75   1
    x[22]     c_22_77   1
    x[22]     c_22_79   1
    x[22]     c_22_84   1
    x[22]     c_22_85   1
    x[22]     c_22_86   1
    x[22]     c_22_87   1
    x[22]     c_22_90   1
    x[22]     c_22_91   1
    x[22]     c_22_92   1
    x[22]     c_22_95   1
    x[22]     c_22_99   1
    x[23]     OBJ       -5
    x[23]     c_1_23    1
    x[23]     c_5_23    1
    x[23]     c_6_23    1
    x[23]     c_9_23    1
    x[23]     c_12_23   1
    x[23]     c_15_23   1
    x[23]     c_20_23   1
    x[23]     c_21_23   1
    x[23]     c_23_25   1
    x[23]     c_23_26   1
    x[23]     c_23_27   1
    x[23]     c_23_28   1
    x[23]     c_23_29   1
    x[23]     c_23_31   1
    x[23]     c_23_32   1
    x[23]     c_23_33   1
    x[23]     c_23_38   1
    x[23]     c_23_42   1
    x[23]     c_23_43   1
    x[23]     c_23_44   1
    x[23]     c_23_47   1
    x[23]     c_23_49   1
    x[23]     c_23_51   1
    x[23]     c_23_54   1
    x[23]     c_23_57   1
    x[23]     c_23_60   1
    x[23]     c_23_62   1
    x[23]     c_23_63   1
    x[23]     c_23_64   1
    x[23]     c_23_67   1
    x[23]     c_23_71   1
    x[23]     c_23_76   1
    x[23]     c_23_77   1
    x[23]     c_23_79   1
    x[23]     c_23_80   1
    x[23]     c_23_83   1
    x[23]     c_23_84   1
    x[23]     c_23_85   1
    x[23]     c_23_86   1
    x[23]     c_23_89   1
    x[23]     c_23_92   1
    x[23]     c_23_93   1
    x[23]     c_23_94   1
    x[23]     c_23_95   1
    x[23]     c_23_96   1
    x[23]     c_23_97   1
    x[23]     c_23_99   1
    x[24]     OBJ       -4
    x[24]     c_1_24    1
    x[24]     c_3_24    1
    x[24]     c_5_24    1
    x[24]     c_6_24    1
    x[24]     c_10_24   1
    x[24]     c_13_24   1
    x[24]     c_14_24   1
    x[24]     c_19_24   1
    x[24]     c_21_24   1
    x[24]     c_24_29   1
    x[24]     c_24_30   1
    x[24]     c_24_32   1
    x[24]     c_24_33   1
    x[24]     c_24_35   1
    x[24]     c_24_43   1
    x[24]     c_24_44   1
    x[24]     c_24_45   1
    x[24]     c_24_46   1
    x[24]     c_24_48   1
    x[24]     c_24_49   1
    x[24]     c_24_53   1
    x[24]     c_24_54   1
    x[24]     c_24_56   1
    x[24]     c_24_62   1
    x[24]     c_24_63   1
    x[24]     c_24_65   1
    x[24]     c_24_68   1
    x[24]     c_24_69   1
    x[24]     c_24_70   1
    x[24]     c_24_71   1
    x[24]     c_24_76   1
    x[24]     c_24_78   1
    x[24]     c_24_84   1
    x[24]     c_24_86   1
    x[24]     c_24_88   1
    x[24]     c_24_90   1
    x[24]     c_24_91   1
    x[24]     c_24_97   1
    x[25]     OBJ       -3
    x[25]     c_0_25    1
    x[25]     c_1_25    1
    x[25]     c_3_25    1
    x[25]     c_6_25    1
    x[25]     c_9_25    1
    x[25]     c_12_25   1
    x[25]     c_14_25   1
    x[25]     c_15_25   1
    x[25]     c_16_25   1
    x[25]     c_17_25   1
    x[25]     c_19_25   1
    x[25]     c_20_25   1
    x[25]     c_21_25   1
    x[25]     c_22_25   1
    x[25]     c_23_25   1
    x[25]     c_25_27   1
    x[25]     c_25_30   1
    x[25]     c_25_32   1
    x[25]     c_25_33   1
    x[25]     c_25_34   1
    x[25]     c_25_35   1
    x[25]     c_25_42   1
    x[25]     c_25_48   1
    x[25]     c_25_50   1
    x[25]     c_25_53   1
    x[25]     c_25_54   1
    x[25]     c_25_57   1
    x[25]     c_25_60   1
    x[25]     c_25_63   1
    x[25]     c_25_66   1
    x[25]     c_25_67   1
    x[25]     c_25_70   1
    x[25]     c_25_71   1
    x[25]     c_25_73   1
    x[25]     c_25_77   1
    x[25]     c_25_79   1
    x[25]     c_25_84   1
    x[25]     c_25_86   1
    x[25]     c_25_87   1
    x[25]     c_25_88   1
    x[25]     c_25_89   1
    x[25]     c_25_92   1
    x[26]     OBJ       -6
    x[26]     c_3_26    1
    x[26]     c_7_26    1
    x[26]     c_8_26    1
    x[26]     c_10_26   1
    x[26]     c_11_26   1
    x[26]     c_13_26   1
    x[26]     c_14_26   1
    x[26]     c_15_26   1
    x[26]     c_16_26   1
    x[26]     c_18_26   1
    x[26]     c_19_26   1
    x[26]     c_20_26   1
    x[26]     c_21_26   1
    x[26]     c_23_26   1
    x[26]     c_26_28   1
    x[26]     c_26_29   1
    x[26]     c_26_38   1
    x[26]     c_26_39   1
    x[26]     c_26_41   1
    x[26]     c_26_43   1
    x[26]     c_26_45   1
    x[26]     c_26_47   1
    x[26]     c_26_48   1
    x[26]     c_26_52   1
    x[26]     c_26_54   1
    x[26]     c_26_57   1
    x[26]     c_26_60   1
    x[26]     c_26_62   1
    x[26]     c_26_64   1
    x[26]     c_26_70   1
    x[26]     c_26_74   1
    x[26]     c_26_78   1
    x[26]     c_26_83   1
    x[26]     c_26_84   1
    x[26]     c_26_85   1
    x[26]     c_26_89   1
    x[26]     c_26_92   1
    x[26]     c_26_96   1
    x[26]     c_26_98   1
    x[26]     c_26_99   1
    x[27]     OBJ       -7
    x[27]     c_0_27    1
    x[27]     c_9_27    1
    x[27]     c_13_27   1
    x[27]     c_15_27   1
    x[27]     c_21_27   1
    x[27]     c_23_27   1
    x[27]     c_25_27   1
    x[27]     c_27_29   1
    x[27]     c_27_30   1
    x[27]     c_27_31   1
    x[27]     c_27_32   1
    x[27]     c_27_34   1
    x[27]     c_27_35   1
    x[27]     c_27_42   1
    x[27]     c_27_44   1
    x[27]     c_27_48   1
    x[27]     c_27_57   1
    x[27]     c_27_61   1
    x[27]     c_27_73   1
    x[27]     c_27_75   1
    x[27]     c_27_77   1
    x[27]     c_27_78   1
    x[27]     c_27_80   1
    x[27]     c_27_84   1
    x[27]     c_27_86   1
    x[27]     c_27_87   1
    x[27]     c_27_89   1
    x[27]     c_27_91   1
    x[27]     c_27_92   1
    x[27]     c_27_95   1
    x[27]     c_27_99   1
    x[28]     OBJ       -10
    x[28]     c_3_28    1
    x[28]     c_5_28    1
    x[28]     c_7_28    1
    x[28]     c_8_28    1
    x[28]     c_11_28   1
    x[28]     c_15_28   1
    x[28]     c_20_28   1
    x[28]     c_21_28   1
    x[28]     c_23_28   1
    x[28]     c_26_28   1
    x[28]     c_28_29   1
    x[28]     c_28_32   1
    x[28]     c_28_38   1
    x[28]     c_28_43   1
    x[28]     c_28_44   1
    x[28]     c_28_45   1
    x[28]     c_28_47   1
    x[28]     c_28_57   1
    x[28]     c_28_60   1
    x[28]     c_28_62   1
    x[28]     c_28_64   1
    x[28]     c_28_74   1
    x[28]     c_28_78   1
    x[28]     c_28_79   1
    x[28]     c_28_80   1
    x[28]     c_28_83   1
    x[28]     c_28_85   1
    x[28]     c_28_89   1
    x[28]     c_28_92   1
    x[28]     c_28_96   1
    x[28]     c_28_99   1
    x[29]     OBJ       -5
    x[29]     c_0_29    1
    x[29]     c_1_29    1
    x[29]     c_3_29    1
    x[29]     c_5_29    1
    x[29]     c_6_29    1
    x[29]     c_7_29    1
    x[29]     c_8_29    1
    x[29]     c_10_29   1
    x[29]     c_11_29   1
    x[29]     c_15_29   1
    x[29]     c_16_29   1
    x[29]     c_17_29   1
    x[29]     c_18_29   1
    x[29]     c_19_29   1
    x[29]     c_20_29   1
    x[29]     c_21_29   1
    x[29]     c_23_29   1
    x[29]     c_24_29   1
    x[29]     c_26_29   1
    x[29]     c_27_29   1
    x[29]     c_28_29   1
    x[29]     c_29_30   1
    x[29]     c_29_31   1
    x[29]     c_29_32   1
    x[29]     c_29_34   1
    x[29]     c_29_35   1
    x[29]     c_29_37   1
    x[29]     c_29_38   1
    x[29]     c_29_40   1
    x[29]     c_29_43   1
    x[29]     c_29_44   1
    x[29]     c_29_45   1
    x[29]     c_29_47   1
    x[29]     c_29_48   1
    x[29]     c_29_49   1
    x[29]     c_29_50   1
    x[29]     c_29_51   1
    x[29]     c_29_54   1
    x[29]     c_29_56   1
    x[29]     c_29_57   1
    x[29]     c_29_61   1
    x[29]     c_29_62   1
    x[29]     c_29_63   1
    x[29]     c_29_64   1
    x[29]     c_29_69   1
    x[29]     c_29_70   1
    x[29]     c_29_74   1
    x[29]     c_29_76   1
    x[29]     c_29_78   1
    x[29]     c_29_79   1
    x[29]     c_29_80   1
    x[29]     c_29_83   1
    x[29]     c_29_84   1
    x[29]     c_29_86   1
    x[29]     c_29_87   1
    x[29]     c_29_89   1
    x[29]     c_29_90   1
    x[29]     c_29_92   1
    x[29]     c_29_96   1
    x[29]     c_29_98   1
    x[29]     c_29_99   1
    x[30]     OBJ       -2
    x[30]     c_0_30    1
    x[30]     c_1_30    1
    x[30]     c_2_30    1
    x[30]     c_4_30    1
    x[30]     c_5_30    1
    x[30]     c_6_30    1
    x[30]     c_7_30    1
    x[30]     c_9_30    1
    x[30]     c_13_30   1
    x[30]     c_16_30   1
    x[30]     c_18_30   1
    x[30]     c_20_30   1
    x[30]     c_21_30   1
    x[30]     c_22_30   1
    x[30]     c_24_30   1
    x[30]     c_25_30   1
    x[30]     c_27_30   1
    x[30]     c_29_30   1
    x[30]     c_30_31   1
    x[30]     c_30_32   1
    x[30]     c_30_33   1
    x[30]     c_30_35   1
    x[30]     c_30_36   1
    x[30]     c_30_38   1
    x[30]     c_30_41   1
    x[30]     c_30_42   1
    x[30]     c_30_44   1
    x[30]     c_30_47   1
    x[30]     c_30_49   1
    x[30]     c_30_50   1
    x[30]     c_30_51   1
    x[30]     c_30_52   1
    x[30]     c_30_54   1
    x[30]     c_30_56   1
    x[30]     c_30_57   1
    x[30]     c_30_60   1
    x[30]     c_30_61   1
    x[30]     c_30_62   1
    x[30]     c_30_63   1
    x[30]     c_30_68   1
    x[30]     c_30_69   1
    x[30]     c_30_70   1
    x[30]     c_30_71   1
    x[30]     c_30_75   1
    x[30]     c_30_76   1
    x[30]     c_30_77   1
    x[30]     c_30_78   1
    x[30]     c_30_79   1
    x[30]     c_30_80   1
    x[30]     c_30_84   1
    x[30]     c_30_86   1
    x[30]     c_30_87   1
    x[30]     c_30_89   1
    x[30]     c_30_90   1
    x[30]     c_30_91   1
    x[30]     c_30_92   1
    x[30]     c_30_93   1
    x[30]     c_30_95   1
    x[30]     c_30_99   1
    x[31]     OBJ       -9
    x[31]     c_0_31    1
    x[31]     c_1_31    1
    x[31]     c_5_31    1
    x[31]     c_7_31    1
    x[31]     c_9_31    1
    x[31]     c_11_31   1
    x[31]     c_13_31   1
    x[31]     c_15_31   1
    x[31]     c_17_31   1
    x[31]     c_19_31   1
    x[31]     c_20_31   1
    x[31]     c_23_31   1
    x[31]     c_27_31   1
    x[31]     c_29_31   1
    x[31]     c_30_31   1
    x[31]     c_31_32   1
    x[31]     c_31_35   1
    x[31]     c_31_36   1
    x[31]     c_31_38   1
    x[31]     c_31_39   1
    x[31]     c_31_42   1
    x[31]     c_31_44   1
    x[31]     c_31_49   1
    x[31]     c_31_53   1
    x[31]     c_31_54   1
    x[31]     c_31_55   1
    x[31]     c_31_57   1
    x[31]     c_31_58   1
    x[31]     c_31_61   1
    x[31]     c_31_64   1
    x[31]     c_31_67   1
    x[31]     c_31_69   1
    x[31]     c_31_73   1
    x[31]     c_31_74   1
    x[31]     c_31_75   1
    x[31]     c_31_77   1
    x[31]     c_31_78   1
    x[31]     c_31_79   1
    x[31]     c_31_80   1
    x[31]     c_31_81   1
    x[31]     c_31_83   1
    x[31]     c_31_84   1
    x[31]     c_31_85   1
    x[31]     c_31_86   1
    x[31]     c_31_89   1
    x[31]     c_31_91   1
    x[31]     c_31_92   1
    x[31]     c_31_94   1
    x[31]     c_31_95   1
    x[31]     c_31_99   1
    x[32]     OBJ       -7
    x[32]     c_0_32    1
    x[32]     c_1_32    1
    x[32]     c_5_32    1
    x[32]     c_6_32    1
    x[32]     c_9_32    1
    x[32]     c_13_32   1
    x[32]     c_16_32   1
    x[32]     c_20_32   1
    x[32]     c_21_32   1
    x[32]     c_23_32   1
    x[32]     c_24_32   1
    x[32]     c_25_32   1
    x[32]     c_27_32   1
    x[32]     c_28_32   1
    x[32]     c_29_32   1
    x[32]     c_30_32   1
    x[32]     c_31_32   1
    x[32]     c_32_35   1
    x[32]     c_32_42   1
    x[32]     c_32_44   1
    x[32]     c_32_47   1
    x[32]     c_32_50   1
    x[32]     c_32_54   1
    x[32]     c_32_56   1
    x[32]     c_32_62   1
    x[32]     c_32_63   1
    x[32]     c_32_69   1
    x[32]     c_32_71   1
    x[32]     c_32_75   1
    x[32]     c_32_76   1
    x[32]     c_32_77   1
    x[32]     c_32_78   1
    x[32]     c_32_79   1
    x[32]     c_32_80   1
    x[32]     c_32_83   1
    x[32]     c_32_84   1
    x[32]     c_32_86   1
    x[32]     c_32_87   1
    x[32]     c_32_89   1
    x[32]     c_32_91   1
    x[32]     c_32_92   1
    x[32]     c_32_93   1
    x[32]     c_32_95   1
    x[32]     c_32_96   1
    x[32]     c_32_99   1
    x[33]     OBJ       -8
    x[33]     c_1_33    1
    x[33]     c_2_33    1
    x[33]     c_6_33    1
    x[33]     c_7_33    1
    x[33]     c_9_33    1
    x[33]     c_12_33   1
    x[33]     c_14_33   1
    x[33]     c_21_33   1
    x[33]     c_23_33   1
    x[33]     c_24_33   1
    x[33]     c_25_33   1
    x[33]     c_30_33   1
    x[33]     c_33_35   1
    x[33]     c_33_36   1
    x[33]     c_33_37   1
    x[33]     c_33_38   1
    x[33]     c_33_42   1
    x[33]     c_33_49   1
    x[33]     c_33_52   1
    x[33]     c_33_60   1
    x[33]     c_33_62   1
    x[33]     c_33_66   1
    x[33]     c_33_68   1
    x[33]     c_33_69   1
    x[33]     c_33_70   1
    x[33]     c_33_71   1
    x[33]     c_33_76   1
    x[33]     c_33_77   1
    x[33]     c_33_79   1
    x[33]     c_33_80   1
    x[33]     c_33_87   1
    x[33]     c_33_88   1
    x[33]     c_33_89   1
    x[33]     c_33_91   1
    x[33]     c_33_93   1
    x[33]     c_33_94   1
    x[33]     c_33_96   1
    x[33]     c_33_97   1
    x[33]     c_33_99   1
    x[34]     OBJ       -1
    x[34]     c_1_34    1
    x[34]     c_5_34    1
    x[34]     c_6_34    1
    x[34]     c_7_34    1
    x[34]     c_9_34    1
    x[34]     c_10_34   1
    x[34]     c_11_34   1
    x[34]     c_12_34   1
    x[34]     c_13_34   1
    x[34]     c_15_34   1
    x[34]     c_16_34   1
    x[34]     c_18_34   1
    x[34]     c_19_34   1
    x[34]     c_21_34   1
    x[34]     c_25_34   1
    x[34]     c_27_34   1
    x[34]     c_29_34   1
    x[34]     c_34_35   1
    x[34]     c_34_37   1
    x[34]     c_34_38   1
    x[34]     c_34_40   1
    x[34]     c_34_42   1
    x[34]     c_34_43   1
    x[34]     c_34_44   1
    x[34]     c_34_45   1
    x[34]     c_34_48   1
    x[34]     c_34_49   1
    x[34]     c_34_50   1
    x[34]     c_34_52   1
    x[34]     c_34_53   1
    x[34]     c_34_54   1
    x[34]     c_34_57   1
    x[34]     c_34_63   1
    x[34]     c_34_64   1
    x[34]     c_34_70   1
    x[34]     c_34_73   1
    x[34]     c_34_77   1
    x[34]     c_34_78   1
    x[34]     c_34_79   1
    x[34]     c_34_84   1
    x[34]     c_34_86   1
    x[34]     c_34_87   1
    x[34]     c_34_89   1
    x[34]     c_34_90   1
    x[34]     c_34_92   1
    x[34]     c_34_98   1
    x[35]     OBJ       -4
    x[35]     c_4_35    1
    x[35]     c_5_35    1
    x[35]     c_7_35    1
    x[35]     c_9_35    1
    x[35]     c_10_35   1
    x[35]     c_12_35   1
    x[35]     c_13_35   1
    x[35]     c_14_35   1
    x[35]     c_15_35   1
    x[35]     c_18_35   1
    x[35]     c_19_35   1
    x[35]     c_24_35   1
    x[35]     c_25_35   1
    x[35]     c_27_35   1
    x[35]     c_29_35   1
    x[35]     c_30_35   1
    x[35]     c_31_35   1
    x[35]     c_32_35   1
    x[35]     c_33_35   1
    x[35]     c_34_35   1
    x[35]     c_35_36   1
    x[35]     c_35_37   1
    x[35]     c_35_39   1
    x[35]     c_35_40   1
    x[35]     c_35_42   1
    x[35]     c_35_43   1
    x[35]     c_35_44   1
    x[35]     c_35_45   1
    x[35]     c_35_49   1
    x[35]     c_35_50   1
    x[35]     c_35_51   1
    x[35]     c_35_60   1
    x[35]     c_35_62   1
    x[35]     c_35_64   1
    x[35]     c_35_69   1
    x[35]     c_35_70   1
    x[35]     c_35_75   1
    x[35]     c_35_78   1
    x[35]     c_35_79   1
    x[35]     c_35_80   1
    x[35]     c_35_86   1
    x[35]     c_35_87   1
    x[35]     c_35_88   1
    x[35]     c_35_89   1
    x[35]     c_35_90   1
    x[35]     c_35_91   1
    x[35]     c_35_92   1
    x[35]     c_35_95   1
    x[35]     c_35_97   1
    x[35]     c_35_99   1
    x[36]     OBJ       -8
    x[36]     c_2_36    1
    x[36]     c_5_36    1
    x[36]     c_6_36    1
    x[36]     c_11_36   1
    x[36]     c_15_36   1
    x[36]     c_16_36   1
    x[36]     c_17_36   1
    x[36]     c_20_36   1
    x[36]     c_30_36   1
    x[36]     c_31_36   1
    x[36]     c_33_36   1
    x[36]     c_35_36   1
    x[36]     c_36_37   1
    x[36]     c_36_42   1
    x[36]     c_36_47   1
    x[36]     c_36_49   1
    x[36]     c_36_51   1
    x[36]     c_36_54   1
    x[36]     c_36_56   1
    x[36]     c_36_61   1
    x[36]     c_36_63   1
    x[36]     c_36_65   1
    x[36]     c_36_66   1
    x[36]     c_36_73   1
    x[36]     c_36_75   1
    x[36]     c_36_77   1
    x[36]     c_36_81   1
    x[36]     c_36_83   1
    x[36]     c_36_85   1
    x[36]     c_36_86   1
    x[36]     c_36_89   1
    x[36]     c_36_90   1
    x[36]     c_36_92   1
    x[36]     c_36_94   1
    x[36]     c_36_96   1
    x[36]     c_36_99   1
    x[37]     OBJ       -9
    x[37]     c_6_37    1
    x[37]     c_7_37    1
    x[37]     c_10_37   1
    x[37]     c_29_37   1
    x[37]     c_33_37   1
    x[37]     c_34_37   1
    x[37]     c_35_37   1
    x[37]     c_36_37   1
    x[37]     c_37_40   1
    x[37]     c_37_43   1
    x[37]     c_37_44   1
    x[37]     c_37_50   1
    x[37]     c_37_64   1
    x[37]     c_37_70   1
    x[37]     c_37_77   1
    x[37]     c_37_86   1
    x[37]     c_37_87   1
    x[37]     c_37_89   1
    x[37]     c_37_90   1
    x[37]     c_37_96   1
    x[38]     OBJ       -5
    x[38]     c_0_38    1
    x[38]     c_1_38    1
    x[38]     c_2_38    1
    x[38]     c_5_38    1
    x[38]     c_6_38    1
    x[38]     c_7_38    1
    x[38]     c_9_38    1
    x[38]     c_11_38   1
    x[38]     c_15_38   1
    x[38]     c_16_38   1
    x[38]     c_17_38   1
    x[38]     c_18_38   1
    x[38]     c_19_38   1
    x[38]     c_20_38   1
    x[38]     c_21_38   1
    x[38]     c_23_38   1
    x[38]     c_26_38   1
    x[38]     c_28_38   1
    x[38]     c_29_38   1
    x[38]     c_30_38   1
    x[38]     c_31_38   1
    x[38]     c_33_38   1
    x[38]     c_34_38   1
    x[38]     c_38_41   1
    x[38]     c_38_43   1
    x[38]     c_38_45   1
    x[38]     c_38_48   1
    x[38]     c_38_49   1
    x[38]     c_38_50   1
    x[38]     c_38_52   1
    x[38]     c_38_54   1
    x[38]     c_38_55   1
    x[38]     c_38_58   1
    x[38]     c_38_60   1
    x[38]     c_38_62   1
    x[38]     c_38_64   1
    x[38]     c_38_69   1
    x[38]     c_38_74   1
    x[38]     c_38_79   1
    x[38]     c_38_84   1
    x[38]     c_38_85   1
    x[38]     c_38_89   1
    x[38]     c_38_90   1
    x[38]     c_38_92   1
    x[38]     c_38_98   1
    x[38]     c_38_99   1
    x[39]     OBJ       -9
    x[39]     c_4_39    1
    x[39]     c_5_39    1
    x[39]     c_11_39   1
    x[39]     c_12_39   1
    x[39]     c_14_39   1
    x[39]     c_15_39   1
    x[39]     c_16_39   1
    x[39]     c_18_39   1
    x[39]     c_19_39   1
    x[39]     c_21_39   1
    x[39]     c_26_39   1
    x[39]     c_31_39   1
    x[39]     c_35_39   1
    x[39]     c_39_40   1
    x[39]     c_39_41   1
    x[39]     c_39_44   1
    x[39]     c_39_45   1
    x[39]     c_39_49   1
    x[39]     c_39_52   1
    x[39]     c_39_53   1
    x[39]     c_39_54   1
    x[39]     c_39_57   1
    x[39]     c_39_60   1
    x[39]     c_39_61   1
    x[39]     c_39_67   1
    x[39]     c_39_69   1
    x[39]     c_39_70   1
    x[39]     c_39_73   1
    x[39]     c_39_74   1
    x[39]     c_39_84   1
    x[39]     c_39_85   1
    x[39]     c_39_86   1
    x[39]     c_39_87   1
    x[39]     c_39_95   1
    x[39]     c_39_97   1
    x[40]     OBJ       -9
    x[40]     c_3_40    1
    x[40]     c_4_40    1
    x[40]     c_5_40    1
    x[40]     c_7_40    1
    x[40]     c_8_40    1
    x[40]     c_9_40    1
    x[40]     c_10_40   1
    x[40]     c_11_40   1
    x[40]     c_12_40   1
    x[40]     c_14_40   1
    x[40]     c_15_40   1
    x[40]     c_18_40   1
    x[40]     c_21_40   1
    x[40]     c_29_40   1
    x[40]     c_34_40   1
    x[40]     c_35_40   1
    x[40]     c_37_40   1
    x[40]     c_39_40   1
    x[40]     c_40_43   1
    x[40]     c_40_44   1
    x[40]     c_40_45   1
    x[40]     c_40_49   1
    x[40]     c_40_50   1
    x[40]     c_40_51   1
    x[40]     c_40_60   1
    x[40]     c_40_64   1
    x[40]     c_40_65   1
    x[40]     c_40_67   1
    x[40]     c_40_69   1
    x[40]     c_40_70   1
    x[40]     c_40_75   1
    x[40]     c_40_79   1
    x[40]     c_40_86   1
    x[40]     c_40_87   1
    x[40]     c_40_90   1
    x[40]     c_40_97   1
    x[41]     OBJ       -4
    x[41]     c_4_41    1
    x[41]     c_6_41    1
    x[41]     c_7_41    1
    x[41]     c_9_41    1
    x[41]     c_11_41   1
    x[41]     c_16_41   1
    x[41]     c_18_41   1
    x[41]     c_19_41   1
    x[41]     c_21_41   1
    x[41]     c_22_41   1
    x[41]     c_26_41   1
    x[41]     c_30_41   1
    x[41]     c_38_41   1
    x[41]     c_39_41   1
    x[41]     c_41_44   1
    x[41]     c_41_47   1
    x[41]     c_41_50   1
    x[41]     c_41_51   1
    x[41]     c_41_52   1
    x[41]     c_41_54   1
    x[41]     c_41_55   1
    x[41]     c_41_56   1
    x[41]     c_41_57   1
    x[41]     c_41_58   1
    x[41]     c_41_60   1
    x[41]     c_41_61   1
    x[41]     c_41_62   1
    x[41]     c_41_63   1
    x[41]     c_41_65   1
    x[41]     c_41_68   1
    x[41]     c_41_70   1
    x[41]     c_41_71   1
    x[41]     c_41_74   1
    x[41]     c_41_75   1
    x[41]     c_41_77   1
    x[41]     c_41_78   1
    x[41]     c_41_79   1
    x[41]     c_41_81   1
    x[41]     c_41_84   1
    x[41]     c_41_85   1
    x[41]     c_41_87   1
    x[41]     c_41_90   1
    x[41]     c_41_91   1
    x[41]     c_41_92   1
    x[41]     c_41_94   1
    x[41]     c_41_95   1
    x[41]     c_41_98   1
    x[42]     OBJ       -9
    x[42]     c_1_42    1
    x[42]     c_2_42    1
    x[42]     c_5_42    1
    x[42]     c_6_42    1
    x[42]     c_7_42    1
    x[42]     c_9_42    1
    x[42]     c_11_42   1
    x[42]     c_12_42   1
    x[42]     c_13_42   1
    x[42]     c_15_42   1
    x[42]     c_19_42   1
    x[42]     c_20_42   1
    x[42]     c_23_42   1
    x[42]     c_25_42   1
    x[42]     c_27_42   1
    x[42]     c_30_42   1
    x[42]     c_31_42   1
    x[42]     c_32_42   1
    x[42]     c_33_42   1
    x[42]     c_34_42   1
    x[42]     c_35_42   1
    x[42]     c_36_42   1
    x[42]     c_42_44   1
    x[42]     c_42_49   1
    x[42]     c_42_52   1
    x[42]     c_42_53   1
    x[42]     c_42_54   1
    x[42]     c_42_56   1
    x[42]     c_42_58   1
    x[42]     c_42_60   1
    x[42]     c_42_61   1
    x[42]     c_42_63   1
    x[42]     c_42_65   1
    x[42]     c_42_66   1
    x[42]     c_42_68   1
    x[42]     c_42_70   1
    x[42]     c_42_71   1
    x[42]     c_42_75   1
    x[42]     c_42_77   1
    x[42]     c_42_78   1
    x[42]     c_42_79   1
    x[42]     c_42_80   1
    x[42]     c_42_83   1
    x[42]     c_42_87   1
    x[42]     c_42_88   1
    x[42]     c_42_89   1
    x[42]     c_42_91   1
    x[42]     c_42_92   1
    x[42]     c_42_93   1
    x[42]     c_42_94   1
    x[42]     c_42_95   1
    x[42]     c_42_99   1
    x[43]     OBJ       -3
    x[43]     c_7_43    1
    x[43]     c_10_43   1
    x[43]     c_13_43   1
    x[43]     c_15_43   1
    x[43]     c_19_43   1
    x[43]     c_20_43   1
    x[43]     c_23_43   1
    x[43]     c_24_43   1
    x[43]     c_26_43   1
    x[43]     c_28_43   1
    x[43]     c_29_43   1
    x[43]     c_34_43   1
    x[43]     c_35_43   1
    x[43]     c_37_43   1
    x[43]     c_38_43   1
    x[43]     c_40_43   1
    x[43]     c_43_44   1
    x[43]     c_43_46   1
    x[43]     c_43_49   1
    x[43]     c_43_50   1
    x[43]     c_43_60   1
    x[43]     c_43_62   1
    x[43]     c_43_64   1
    x[43]     c_43_67   1
    x[43]     c_43_70   1
    x[43]     c_43_78   1
    x[43]     c_43_84   1
    x[43]     c_43_85   1
    x[43]     c_43_86   1
    x[43]     c_43_87   1
    x[43]     c_43_88   1
    x[43]     c_43_89   1
    x[43]     c_43_90   1
    x[43]     c_43_91   1
    x[43]     c_43_92   1
    x[43]     c_43_95   1
    x[43]     c_43_99   1
    x[44]     OBJ       -3
    x[44]     c_1_44    1
    x[44]     c_4_44    1
    x[44]     c_5_44    1
    x[44]     c_6_44    1
    x[44]     c_7_44    1
    x[44]     c_9_44    1
    x[44]     c_10_44   1
    x[44]     c_11_44   1
    x[44]     c_13_44   1
    x[44]     c_17_44   1
    x[44]     c_18_44   1
    x[44]     c_19_44   1
    x[44]     c_21_44   1
    x[44]     c_22_44   1
    x[44]     c_23_44   1
    x[44]     c_24_44   1
    x[44]     c_27_44   1
    x[44]     c_28_44   1
    x[44]     c_29_44   1
    x[44]     c_30_44   1
    x[44]     c_31_44   1
    x[44]     c_32_44   1
    x[44]     c_34_44   1
    x[44]     c_35_44   1
    x[44]     c_37_44   1
    x[44]     c_39_44   1
    x[44]     c_40_44   1
    x[44]     c_41_44   1
    x[44]     c_42_44   1
    x[44]     c_43_44   1
    x[44]     c_44_47   1
    x[44]     c_44_48   1
    x[44]     c_44_49   1
    x[44]     c_44_50   1
    x[44]     c_44_51   1
    x[44]     c_44_54   1
    x[44]     c_44_55   1
    x[44]     c_44_56   1
    x[44]     c_44_60   1
    x[44]     c_44_62   1
    x[44]     c_44_63   1
    x[44]     c_44_64   1
    x[44]     c_44_65   1
    x[44]     c_44_69   1
    x[44]     c_44_70   1
    x[44]     c_44_71   1
    x[44]     c_44_74   1
    x[44]     c_44_75   1
    x[44]     c_44_76   1
    x[44]     c_44_78   1
    x[44]     c_44_79   1
    x[44]     c_44_80   1
    x[44]     c_44_81   1
    x[44]     c_44_83   1
    x[44]     c_44_84   1
    x[44]     c_44_86   1
    x[44]     c_44_87   1
    x[44]     c_44_89   1
    x[44]     c_44_90   1
    x[44]     c_44_91   1
    x[44]     c_44_92   1
    x[44]     c_44_94   1
    x[44]     c_44_95   1
    x[44]     c_44_96   1
    x[44]     c_44_98   1
    x[44]     c_44_99   1
    x[45]     OBJ       -7
    x[45]     c_3_45    1
    x[45]     c_4_45    1
    x[45]     c_5_45    1
    x[45]     c_6_45    1
    x[45]     c_7_45    1
    x[45]     c_8_45    1
    x[45]     c_10_45   1
    x[45]     c_11_45   1
    x[45]     c_12_45   1
    x[45]     c_14_45   1
    x[45]     c_15_45   1
    x[45]     c_16_45   1
    x[45]     c_18_45   1
    x[45]     c_21_45   1
    x[45]     c_24_45   1
    x[45]     c_26_45   1
    x[45]     c_28_45   1
    x[45]     c_29_45   1
    x[45]     c_34_45   1
    x[45]     c_35_45   1
    x[45]     c_38_45   1
    x[45]     c_39_45   1
    x[45]     c_40_45   1
    x[45]     c_45_48   1
    x[45]     c_45_50   1
    x[45]     c_45_51   1
    x[45]     c_45_54   1
    x[45]     c_45_57   1
    x[45]     c_45_60   1
    x[45]     c_45_65   1
    x[45]     c_45_68   1
    x[45]     c_45_70   1
    x[45]     c_45_74   1
    x[45]     c_45_78   1
    x[45]     c_45_79   1
    x[45]     c_45_83   1
    x[45]     c_45_84   1
    x[45]     c_45_87   1
    x[45]     c_45_89   1
    x[45]     c_45_92   1
    x[45]     c_45_97   1
    x[45]     c_45_98   1
    x[46]     OBJ       -7
    x[46]     c_3_46    1
    x[46]     c_7_46    1
    x[46]     c_10_46   1
    x[46]     c_15_46   1
    x[46]     c_24_46   1
    x[46]     c_43_46   1
    x[46]     c_46_50   1
    x[46]     c_46_53   1
    x[46]     c_46_63   1
    x[46]     c_46_67   1
    x[46]     c_46_68   1
    x[46]     c_46_71   1
    x[46]     c_46_84   1
    x[46]     c_46_90   1
    x[46]     c_46_91   1
    x[46]     c_46_95   1
    x[47]     OBJ       -2
    x[47]     c_5_47    1
    x[47]     c_7_47    1
    x[47]     c_14_47   1
    x[47]     c_16_47   1
    x[47]     c_19_47   1
    x[47]     c_21_47   1
    x[47]     c_22_47   1
    x[47]     c_23_47   1
    x[47]     c_26_47   1
    x[47]     c_28_47   1
    x[47]     c_29_47   1
    x[47]     c_30_47   1
    x[47]     c_32_47   1
    x[47]     c_36_47   1
    x[47]     c_41_47   1
    x[47]     c_44_47   1
    x[47]     c_47_48   1
    x[47]     c_47_54   1
    x[47]     c_47_56   1
    x[47]     c_47_57   1
    x[47]     c_47_61   1
    x[47]     c_47_66   1
    x[47]     c_47_74   1
    x[47]     c_47_75   1
    x[47]     c_47_79   1
    x[47]     c_47_80   1
    x[47]     c_47_83   1
    x[47]     c_47_86   1
    x[47]     c_47_87   1
    x[47]     c_47_96   1
    x[47]     c_47_98   1
    x[48]     OBJ       -9
    x[48]     c_5_48    1
    x[48]     c_6_48    1
    x[48]     c_9_48    1
    x[48]     c_11_48   1
    x[48]     c_14_48   1
    x[48]     c_16_48   1
    x[48]     c_17_48   1
    x[48]     c_18_48   1
    x[48]     c_19_48   1
    x[48]     c_21_48   1
    x[48]     c_22_48   1
    x[48]     c_24_48   1
    x[48]     c_25_48   1
    x[48]     c_26_48   1
    x[48]     c_27_48   1
    x[48]     c_29_48   1
    x[48]     c_34_48   1
    x[48]     c_38_48   1
    x[48]     c_44_48   1
    x[48]     c_45_48   1
    x[48]     c_47_48   1
    x[48]     c_48_50   1
    x[48]     c_48_54   1
    x[48]     c_48_57   1
    x[48]     c_48_60   1
    x[48]     c_48_65   1
    x[48]     c_48_68   1
    x[48]     c_48_70   1
    x[48]     c_48_73   1
    x[48]     c_48_74   1
    x[48]     c_48_84   1
    x[48]     c_48_86   1
    x[48]     c_48_90   1
    x[48]     c_48_92   1
    x[48]     c_48_96   1
    x[48]     c_48_97   1
    x[48]     c_48_98   1
    x[48]     c_48_99   1
    x[49]     OBJ       -2
    x[49]     c_2_49    1
    x[49]     c_4_49    1
    x[49]     c_5_49    1
    x[49]     c_6_49    1
    x[49]     c_7_49    1
    x[49]     c_8_49    1
    x[49]     c_9_49    1
    x[49]     c_10_49   1
    x[49]     c_11_49   1
    x[49]     c_13_49   1
    x[49]     c_19_49   1
    x[49]     c_20_49   1
    x[49]     c_21_49   1
    x[49]     c_23_49   1
    x[49]     c_24_49   1
    x[49]     c_29_49   1
    x[49]     c_30_49   1
    x[49]     c_31_49   1
    x[49]     c_33_49   1
    x[49]     c_34_49   1
    x[49]     c_35_49   1
    x[49]     c_36_49   1
    x[49]     c_38_49   1
    x[49]     c_39_49   1
    x[49]     c_40_49   1
    x[49]     c_42_49   1
    x[49]     c_43_49   1
    x[49]     c_44_49   1
    x[49]     c_49_50   1
    x[49]     c_49_52   1
    x[49]     c_49_53   1
    x[49]     c_49_57   1
    x[49]     c_49_58   1
    x[49]     c_49_60   1
    x[49]     c_49_61   1
    x[49]     c_49_64   1
    x[49]     c_49_65   1
    x[49]     c_49_66   1
    x[49]     c_49_67   1
    x[49]     c_49_68   1
    x[49]     c_49_69   1
    x[49]     c_49_70   1
    x[49]     c_49_73   1
    x[49]     c_49_75   1
    x[49]     c_49_76   1
    x[49]     c_49_77   1
    x[49]     c_49_78   1
    x[49]     c_49_79   1
    x[49]     c_49_80   1
    x[49]     c_49_84   1
    x[49]     c_49_86   1
    x[49]     c_49_87   1
    x[49]     c_49_88   1
    x[49]     c_49_89   1
    x[49]     c_49_90   1
    x[49]     c_49_94   1
    x[49]     c_49_96   1
    x[49]     c_49_97   1
    x[49]     c_49_99   1
    x[50]     OBJ       -9
    x[50]     c_0_50    1
    x[50]     c_5_50    1
    x[50]     c_6_50    1
    x[50]     c_7_50    1
    x[50]     c_10_50   1
    x[50]     c_11_50   1
    x[50]     c_15_50   1
    x[50]     c_16_50   1
    x[50]     c_18_50   1
    x[50]     c_20_50   1
    x[50]     c_21_50   1
    x[50]     c_22_50   1
    x[50]     c_25_50   1
    x[50]     c_29_50   1
    x[50]     c_30_50   1
    x[50]     c_32_50   1
    x[50]     c_34_50   1
    x[50]     c_35_50   1
    x[50]     c_37_50   1
    x[50]     c_38_50   1
    x[50]     c_40_50   1
    x[50]     c_41_50   1
    x[50]     c_43_50   1
    x[50]     c_44_50   1
    x[50]     c_45_50   1
    x[50]     c_46_50   1
    x[50]     c_48_50   1
    x[50]     c_49_50   1
    x[50]     c_50_54   1
    x[50]     c_50_58   1
    x[50]     c_50_64   1
    x[50]     c_50_67   1
    x[50]     c_50_70   1
    x[50]     c_50_71   1
    x[50]     c_50_74   1
    x[50]     c_50_77   1
    x[50]     c_50_84   1
    x[50]     c_50_85   1
    x[50]     c_50_86   1
    x[50]     c_50_87   1
    x[50]     c_50_89   1
    x[50]     c_50_90   1
    x[50]     c_50_91   1
    x[50]     c_50_92   1
    x[50]     c_50_93   1
    x[50]     c_50_95   1
    x[50]     c_50_98   1
    x[51]     OBJ       -1
    x[51]     c_3_51    1
    x[51]     c_10_51   1
    x[51]     c_11_51   1
    x[51]     c_12_51   1
    x[51]     c_18_51   1
    x[51]     c_21_51   1
    x[51]     c_23_51   1
    x[51]     c_29_51   1
    x[51]     c_30_51   1
    x[51]     c_35_51   1
    x[51]     c_36_51   1
    x[51]     c_40_51   1
    x[51]     c_41_51   1
    x[51]     c_44_51   1
    x[51]     c_45_51   1
    x[51]     c_51_54   1
    x[51]     c_51_55   1
    x[51]     c_51_62   1
    x[51]     c_51_63   1
    x[51]     c_51_65   1
    x[51]     c_51_67   1
    x[51]     c_51_71   1
    x[51]     c_51_74   1
    x[51]     c_51_77   1
    x[51]     c_51_79   1
    x[51]     c_51_81   1
    x[51]     c_51_85   1
    x[51]     c_51_90   1
    x[51]     c_51_94   1
    x[51]     c_51_95   1
    x[51]     c_51_97   1
    x[51]     c_51_98   1
    x[52]     OBJ       -8
    x[52]     c_2_52    1
    x[52]     c_4_52    1
    x[52]     c_6_52    1
    x[52]     c_7_52    1
    x[52]     c_9_52    1
    x[52]     c_15_52   1
    x[52]     c_16_52   1
    x[52]     c_18_52   1
    x[52]     c_19_52   1
    x[52]     c_21_52   1
    x[52]     c_26_52   1
    x[52]     c_30_52   1
    x[52]     c_33_52   1
    x[52]     c_34_52   1
    x[52]     c_38_52   1
    x[52]     c_39_52   1
    x[52]     c_41_52   1
    x[52]     c_42_52   1
    x[52]     c_49_52   1
    x[52]     c_52_54   1
    x[52]     c_52_56   1
    x[52]     c_52_57   1
    x[52]     c_52_60   1
    x[52]     c_52_62   1
    x[52]     c_52_63   1
    x[52]     c_52_66   1
    x[52]     c_52_68   1
    x[52]     c_52_70   1
    x[52]     c_52_74   1
    x[52]     c_52_78   1
    x[52]     c_52_79   1
    x[52]     c_52_84   1
    x[52]     c_52_85   1
    x[52]     c_52_86   1
    x[52]     c_52_87   1
    x[52]     c_52_88   1
    x[52]     c_52_89   1
    x[52]     c_52_94   1
    x[53]     OBJ       -8
    x[53]     c_1_53    1
    x[53]     c_3_53    1
    x[53]     c_6_53    1
    x[53]     c_10_53   1
    x[53]     c_12_53   1
    x[53]     c_13_53   1
    x[53]     c_19_53   1
    x[53]     c_24_53   1
    x[53]     c_25_53   1
    x[53]     c_31_53   1
    x[53]     c_34_53   1
    x[53]     c_39_53   1
    x[53]     c_42_53   1
    x[53]     c_46_53   1
    x[53]     c_49_53   1
    x[53]     c_53_54   1
    x[53]     c_53_57   1
    x[53]     c_53_61   1
    x[53]     c_53_63   1
    x[53]     c_53_67   1
    x[53]     c_53_68   1
    x[53]     c_53_69   1
    x[53]     c_53_71   1
    x[53]     c_53_73   1
    x[53]     c_53_77   1
    x[53]     c_53_79   1
    x[53]     c_53_90   1
    x[54]     OBJ       -8
    x[54]     c_0_54    1
    x[54]     c_1_54    1
    x[54]     c_5_54    1
    x[54]     c_6_54    1
    x[54]     c_7_54    1
    x[54]     c_9_54    1
    x[54]     c_11_54   1
    x[54]     c_12_54   1
    x[54]     c_13_54   1
    x[54]     c_15_54   1
    x[54]     c_16_54   1
    x[54]     c_17_54   1
    x[54]     c_18_54   1
    x[54]     c_19_54   1
    x[54]     c_20_54   1
    x[54]     c_21_54   1
    x[54]     c_22_54   1
    x[54]     c_23_54   1
    x[54]     c_24_54   1
    x[54]     c_25_54   1
    x[54]     c_26_54   1
    x[54]     c_29_54   1
    x[54]     c_30_54   1
    x[54]     c_31_54   1
    x[54]     c_32_54   1
    x[54]     c_34_54   1
    x[54]     c_36_54   1
    x[54]     c_38_54   1
    x[54]     c_39_54   1
    x[54]     c_41_54   1
    x[54]     c_42_54   1
    x[54]     c_44_54   1
    x[54]     c_45_54   1
    x[54]     c_47_54   1
    x[54]     c_48_54   1
    x[54]     c_50_54   1
    x[54]     c_51_54   1
    x[54]     c_52_54   1
    x[54]     c_53_54   1
    x[54]     c_54_57   1
    x[54]     c_54_60   1
    x[54]     c_54_61   1
    x[54]     c_54_65   1
    x[54]     c_54_67   1
    x[54]     c_54_68   1
    x[54]     c_54_70   1
    x[54]     c_54_71   1
    x[54]     c_54_73   1
    x[54]     c_54_74   1
    x[54]     c_54_75   1
    x[54]     c_54_77   1
    x[54]     c_54_79   1
    x[54]     c_54_81   1
    x[54]     c_54_83   1
    x[54]     c_54_84   1
    x[54]     c_54_85   1
    x[54]     c_54_86   1
    x[54]     c_54_87   1
    x[54]     c_54_89   1
    x[54]     c_54_90   1
    x[54]     c_54_92   1
    x[54]     c_54_93   1
    x[54]     c_54_94   1
    x[54]     c_54_95   1
    x[54]     c_54_97   1
    x[54]     c_54_98   1
    x[54]     c_54_99   1
    x[55]     OBJ       -7
    x[55]     c_9_55    1
    x[55]     c_18_55   1
    x[55]     c_31_55   1
    x[55]     c_38_55   1
    x[55]     c_41_55   1
    x[55]     c_44_55   1
    x[55]     c_51_55   1
    x[55]     c_55_58   1
    x[55]     c_55_62   1
    x[55]     c_55_63   1
    x[55]     c_55_65   1
    x[55]     c_55_67   1
    x[55]     c_55_71   1
    x[55]     c_55_74   1
    x[55]     c_55_79   1
    x[55]     c_55_81   1
    x[55]     c_55_84   1
    x[55]     c_55_90   1
    x[55]     c_55_94   1
    x[55]     c_55_98   1
    x[56]     OBJ       -5
    x[56]     c_1_56    1
    x[56]     c_2_56    1
    x[56]     c_4_56    1
    x[56]     c_5_56    1
    x[56]     c_6_56    1
    x[56]     c_11_56   1
    x[56]     c_16_56   1
    x[56]     c_18_56   1
    x[56]     c_20_56   1
    x[56]     c_24_56   1
    x[56]     c_29_56   1
    x[56]     c_30_56   1
    x[56]     c_32_56   1
    x[56]     c_36_56   1
    x[56]     c_41_56   1
    x[56]     c_42_56   1
    x[56]     c_44_56   1
    x[56]     c_47_56   1
    x[56]     c_52_56   1
    x[56]     c_56_57   1
    x[56]     c_56_60   1
    x[56]     c_56_61   1
    x[56]     c_56_62   1
    x[56]     c_56_63   1
    x[56]     c_56_65   1
    x[56]     c_56_66   1
    x[56]     c_56_68   1
    x[56]     c_56_69   1
    x[56]     c_56_70   1
    x[56]     c_56_75   1
    x[56]     c_56_76   1
    x[56]     c_56_77   1
    x[56]     c_56_78   1
    x[56]     c_56_83   1
    x[56]     c_56_84   1
    x[56]     c_56_86   1
    x[56]     c_56_92   1
    x[57]     OBJ       -8
    x[57]     c_3_57    1
    x[57]     c_4_57    1
    x[57]     c_5_57    1
    x[57]     c_6_57    1
    x[57]     c_7_57    1
    x[57]     c_8_57    1
    x[57]     c_11_57   1
    x[57]     c_12_57   1
    x[57]     c_18_57   1
    x[57]     c_21_57   1
    x[57]     c_22_57   1
    x[57]     c_23_57   1
    x[57]     c_25_57   1
    x[57]     c_26_57   1
    x[57]     c_27_57   1
    x[57]     c_28_57   1
    x[57]     c_29_57   1
    x[57]     c_30_57   1
    x[57]     c_31_57   1
    x[57]     c_34_57   1
    x[57]     c_39_57   1
    x[57]     c_41_57   1
    x[57]     c_45_57   1
    x[57]     c_47_57   1
    x[57]     c_48_57   1
    x[57]     c_49_57   1
    x[57]     c_52_57   1
    x[57]     c_53_57   1
    x[57]     c_54_57   1
    x[57]     c_56_57   1
    x[57]     c_57_60   1
    x[57]     c_57_61   1
    x[57]     c_57_62   1
    x[57]     c_57_63   1
    x[57]     c_57_67   1
    x[57]     c_57_68   1
    x[57]     c_57_69   1
    x[57]     c_57_70   1
    x[57]     c_57_73   1
    x[57]     c_57_74   1
    x[57]     c_57_75   1
    x[57]     c_57_78   1
    x[57]     c_57_79   1
    x[57]     c_57_83   1
    x[57]     c_57_84   1
    x[57]     c_57_86   1
    x[57]     c_57_87   1
    x[57]     c_57_89   1
    x[58]     OBJ       -3
    x[58]     c_1_58    1
    x[58]     c_5_58    1
    x[58]     c_6_58    1
    x[58]     c_9_58    1
    x[58]     c_11_58   1
    x[58]     c_19_58   1
    x[58]     c_20_58   1
    x[58]     c_21_58   1
    x[58]     c_22_58   1
    x[58]     c_31_58   1
    x[58]     c_38_58   1
    x[58]     c_41_58   1
    x[58]     c_42_58   1
    x[58]     c_49_58   1
    x[58]     c_50_58   1
    x[58]     c_55_58   1
    x[58]     c_58_60   1
    x[58]     c_58_61   1
    x[58]     c_58_63   1
    x[58]     c_58_67   1
    x[58]     c_58_68   1
    x[58]     c_58_69   1
    x[58]     c_58_74   1
    x[58]     c_58_77   1
    x[58]     c_58_79   1
    x[58]     c_58_84   1
    x[58]     c_58_85   1
    x[58]     c_58_90   1
    x[58]     c_58_91   1
    x[58]     c_58_92   1
    x[58]     c_58_95   1
    x[59]     OBJ       -8
    x[60]     OBJ       -6
    x[60]     c_0_60    1
    x[60]     c_1_60    1
    x[60]     c_3_60    1
    x[60]     c_4_60    1
    x[60]     c_5_60    1
    x[60]     c_6_60    1
    x[60]     c_7_60    1
    x[60]     c_8_60    1
    x[60]     c_9_60    1
    x[60]     c_11_60   1
    x[60]     c_12_60   1
    x[60]     c_14_60   1
    x[60]     c_15_60   1
    x[60]     c_17_60   1
    x[60]     c_18_60   1
    x[60]     c_19_60   1
    x[60]     c_20_60   1
    x[60]     c_21_60   1
    x[60]     c_22_60   1
    x[60]     c_23_60   1
    x[60]     c_25_60   1
    x[60]     c_26_60   1
    x[60]     c_28_60   1
    x[60]     c_30_60   1
    x[60]     c_33_60   1
    x[60]     c_35_60   1
    x[60]     c_38_60   1
    x[60]     c_39_60   1
    x[60]     c_40_60   1
    x[60]     c_41_60   1
    x[60]     c_42_60   1
    x[60]     c_43_60   1
    x[60]     c_44_60   1
    x[60]     c_45_60   1
    x[60]     c_48_60   1
    x[60]     c_49_60   1
    x[60]     c_52_60   1
    x[60]     c_54_60   1
    x[60]     c_56_60   1
    x[60]     c_57_60   1
    x[60]     c_58_60   1
    x[60]     c_60_61   1
    x[60]     c_60_62   1
    x[60]     c_60_63   1
    x[60]     c_60_64   1
    x[60]     c_60_65   1
    x[60]     c_60_66   1
    x[60]     c_60_67   1
    x[60]     c_60_68   1
    x[60]     c_60_69   1
    x[60]     c_60_70   1
    x[60]     c_60_75   1
    x[60]     c_60_77   1
    x[60]     c_60_78   1
    x[60]     c_60_84   1
    x[60]     c_60_85   1
    x[60]     c_60_86   1
    x[60]     c_60_87   1
    x[60]     c_60_88   1
    x[60]     c_60_89   1
    x[60]     c_60_90   1
    x[60]     c_60_92   1
    x[60]     c_60_94   1
    x[60]     c_60_97   1
    x[60]     c_60_99   1
    x[61]     OBJ       -5
    x[61]     c_0_61    1
    x[61]     c_1_61    1
    x[61]     c_2_61    1
    x[61]     c_5_61    1
    x[61]     c_7_61    1
    x[61]     c_11_61   1
    x[61]     c_15_61   1
    x[61]     c_19_61   1
    x[61]     c_20_61   1
    x[61]     c_22_61   1
    x[61]     c_27_61   1
    x[61]     c_29_61   1
    x[61]     c_30_61   1
    x[61]     c_31_61   1
    x[61]     c_36_61   1
    x[61]     c_39_61   1
    x[61]     c_41_61   1
    x[61]     c_42_61   1
    x[61]     c_47_61   1
    x[61]     c_49_61   1
    x[61]     c_53_61   1
    x[61]     c_54_61   1
    x[61]     c_56_61   1
    x[61]     c_57_61   1
    x[61]     c_58_61   1
    x[61]     c_60_61   1
    x[61]     c_61_63   1
    x[61]     c_61_65   1
    x[61]     c_61_67   1
    x[61]     c_61_68   1
    x[61]     c_61_69   1
    x[61]     c_61_73   1
    x[61]     c_61_75   1
    x[61]     c_61_77   1
    x[61]     c_61_79   1
    x[61]     c_61_83   1
    x[61]     c_61_87   1
    x[61]     c_61_92   1
    x[62]     OBJ       -6
    x[62]     c_1_62    1
    x[62]     c_4_62    1
    x[62]     c_5_62    1
    x[62]     c_6_62    1
    x[62]     c_10_62   1
    x[62]     c_11_62   1
    x[62]     c_12_62   1
    x[62]     c_13_62   1
    x[62]     c_14_62   1
    x[62]     c_15_62   1
    x[62]     c_18_62   1
    x[62]     c_20_62   1
    x[62]     c_21_62   1
    x[62]     c_23_62   1
    x[62]     c_24_62   1
    x[62]     c_26_62   1
    x[62]     c_28_62   1
    x[62]     c_29_62   1
    x[62]     c_30_62   1
    x[62]     c_32_62   1
    x[62]     c_33_62   1
    x[62]     c_35_62   1
    x[62]     c_38_62   1
    x[62]     c_41_62   1
    x[62]     c_43_62   1
    x[62]     c_44_62   1
    x[62]     c_51_62   1
    x[62]     c_52_62   1
    x[62]     c_55_62   1
    x[62]     c_56_62   1
    x[62]     c_57_62   1
    x[62]     c_60_62   1
    x[62]     c_62_63   1
    x[62]     c_62_64   1
    x[62]     c_62_65   1
    x[62]     c_62_68   1
    x[62]     c_62_69   1
    x[62]     c_62_70   1
    x[62]     c_62_71   1
    x[62]     c_62_74   1
    x[62]     c_62_76   1
    x[62]     c_62_78   1
    x[62]     c_62_81   1
    x[62]     c_62_84   1
    x[62]     c_62_85   1
    x[62]     c_62_86   1
    x[62]     c_62_89   1
    x[62]     c_62_91   1
    x[62]     c_62_92   1
    x[62]     c_62_94   1
    x[62]     c_62_98   1
    x[62]     c_62_99   1
    x[63]     OBJ       -6
    x[63]     c_1_63    1
    x[63]     c_2_63    1
    x[63]     c_3_63    1
    x[63]     c_5_63    1
    x[63]     c_6_63    1
    x[63]     c_9_63    1
    x[63]     c_10_63   1
    x[63]     c_11_63   1
    x[63]     c_12_63   1
    x[63]     c_15_63   1
    x[63]     c_18_63   1
    x[63]     c_19_63   1
    x[63]     c_20_63   1
    x[63]     c_21_63   1
    x[63]     c_23_63   1
    x[63]     c_24_63   1
    x[63]     c_25_63   1
    x[63]     c_29_63   1
    x[63]     c_30_63   1
    x[63]     c_32_63   1
    x[63]     c_34_63   1
    x[63]     c_36_63   1
    x[63]     c_41_63   1
    x[63]     c_42_63   1
    x[63]     c_44_63   1
    x[63]     c_46_63   1
    x[63]     c_51_63   1
    x[63]     c_52_63   1
    x[63]     c_53_63   1
    x[63]     c_55_63   1
    x[63]     c_56_63   1
    x[63]     c_57_63   1
    x[63]     c_58_63   1
    x[63]     c_60_63   1
    x[63]     c_61_63   1
    x[63]     c_62_63   1
    x[63]     c_63_65   1
    x[63]     c_63_68   1
    x[63]     c_63_69   1
    x[63]     c_63_71   1
    x[63]     c_63_74   1
    x[63]     c_63_75   1
    x[63]     c_63_76   1
    x[63]     c_63_77   1
    x[63]     c_63_78   1
    x[63]     c_63_79   1
    x[63]     c_63_81   1
    x[63]     c_63_83   1
    x[63]     c_63_84   1
    x[63]     c_63_86   1
    x[63]     c_63_89   1
    x[63]     c_63_90   1
    x[63]     c_63_92   1
    x[63]     c_63_94   1
    x[63]     c_63_98   1
    x[64]     OBJ       -1
    x[64]     c_0_64    1
    x[64]     c_1_64    1
    x[64]     c_7_64    1
    x[64]     c_10_64   1
    x[64]     c_11_64   1
    x[64]     c_13_64   1
    x[64]     c_15_64   1
    x[64]     c_17_64   1
    x[64]     c_18_64   1
    x[64]     c_19_64   1
    x[64]     c_20_64   1
    x[64]     c_23_64   1
    x[64]     c_26_64   1
    x[64]     c_28_64   1
    x[64]     c_29_64   1
    x[64]     c_31_64   1
    x[64]     c_34_64   1
    x[64]     c_35_64   1
    x[64]     c_37_64   1
    x[64]     c_38_64   1
    x[64]     c_40_64   1
    x[64]     c_43_64   1
    x[64]     c_44_64   1
    x[64]     c_49_64   1
    x[64]     c_50_64   1
    x[64]     c_60_64   1
    x[64]     c_62_64   1
    x[64]     c_64_69   1
    x[64]     c_64_70   1
    x[64]     c_64_74   1
    x[64]     c_64_85   1
    x[64]     c_64_86   1
    x[64]     c_64_87   1
    x[64]     c_64_89   1
    x[64]     c_64_90   1
    x[64]     c_64_92   1
    x[64]     c_64_99   1
    x[65]     OBJ       -2
    x[65]     c_2_65    1
    x[65]     c_4_65    1
    x[65]     c_5_65    1
    x[65]     c_8_65    1
    x[65]     c_9_65    1
    x[65]     c_11_65   1
    x[65]     c_18_65   1
    x[65]     c_20_65   1
    x[65]     c_21_65   1
    x[65]     c_24_65   1
    x[65]     c_36_65   1
    x[65]     c_40_65   1
    x[65]     c_41_65   1
    x[65]     c_42_65   1
    x[65]     c_44_65   1
    x[65]     c_45_65   1
    x[65]     c_48_65   1
    x[65]     c_49_65   1
    x[65]     c_51_65   1
    x[65]     c_54_65   1
    x[65]     c_55_65   1
    x[65]     c_56_65   1
    x[65]     c_60_65   1
    x[65]     c_61_65   1
    x[65]     c_62_65   1
    x[65]     c_63_65   1
    x[65]     c_65_67   1
    x[65]     c_65_68   1
    x[65]     c_65_69   1
    x[65]     c_65_70   1
    x[65]     c_65_71   1
    x[65]     c_65_74   1
    x[65]     c_65_75   1
    x[65]     c_65_77   1
    x[65]     c_65_81   1
    x[65]     c_65_83   1
    x[65]     c_65_92   1
    x[65]     c_65_94   1
    x[65]     c_65_97   1
    x[65]     c_65_98   1
    x[66]     OBJ       -3
    x[66]     c_0_66    1
    x[66]     c_1_66    1
    x[66]     c_3_66    1
    x[66]     c_7_66    1
    x[66]     c_14_66   1
    x[66]     c_15_66   1
    x[66]     c_16_66   1
    x[66]     c_17_66   1
    x[66]     c_20_66   1
    x[66]     c_22_66   1
    x[66]     c_25_66   1
    x[66]     c_33_66   1
    x[66]     c_36_66   1
    x[66]     c_42_66   1
    x[66]     c_47_66   1
    x[66]     c_49_66   1
    x[66]     c_52_66   1
    x[66]     c_56_66   1
    x[66]     c_60_66   1
    x[66]     c_66_67   1
    x[66]     c_66_68   1
    x[66]     c_66_70   1
    x[66]     c_66_77   1
    x[66]     c_66_86   1
    x[66]     c_66_87   1
    x[66]     c_66_88   1
    x[66]     c_66_89   1
    x[66]     c_66_92   1
    x[66]     c_66_94   1
    x[67]     OBJ       -2
    x[67]     c_0_67    1
    x[67]     c_1_67    1
    x[67]     c_3_67    1
    x[67]     c_4_67    1
    x[67]     c_5_67    1
    x[67]     c_7_67    1
    x[67]     c_8_67    1
    x[67]     c_9_67    1
    x[67]     c_11_67   1
    x[67]     c_12_67   1
    x[67]     c_14_67   1
    x[67]     c_15_67   1
    x[67]     c_17_67   1
    x[67]     c_20_67   1
    x[67]     c_21_67   1
    x[67]     c_22_67   1
    x[67]     c_23_67   1
    x[67]     c_25_67   1
    x[67]     c_31_67   1
    x[67]     c_39_67   1
    x[67]     c_40_67   1
    x[67]     c_43_67   1
    x[67]     c_46_67   1
    x[67]     c_49_67   1
    x[67]     c_50_67   1
    x[67]     c_51_67   1
    x[67]     c_53_67   1
    x[67]     c_54_67   1
    x[67]     c_55_67   1
    x[67]     c_57_67   1
    x[67]     c_58_67   1
    x[67]     c_60_67   1
    x[67]     c_61_67   1
    x[67]     c_65_67   1
    x[67]     c_66_67   1
    x[67]     c_67_69   1
    x[67]     c_67_70   1
    x[67]     c_67_73   1
    x[67]     c_67_75   1
    x[67]     c_67_77   1
    x[67]     c_67_79   1
    x[67]     c_67_84   1
    x[67]     c_67_85   1
    x[67]     c_67_87   1
    x[67]     c_67_91   1
    x[67]     c_67_92   1
    x[67]     c_67_95   1
    x[67]     c_67_97   1
    x[68]     OBJ       -5
    x[68]     c_1_68    1
    x[68]     c_3_68    1
    x[68]     c_4_68    1
    x[68]     c_5_68    1
    x[68]     c_6_68    1
    x[68]     c_7_68    1
    x[68]     c_10_68   1
    x[68]     c_18_68   1
    x[68]     c_19_68   1
    x[68]     c_21_68   1
    x[68]     c_24_68   1
    x[68]     c_30_68   1
    x[68]     c_33_68   1
    x[68]     c_41_68   1
    x[68]     c_42_68   1
    x[68]     c_45_68   1
    x[68]     c_46_68   1
    x[68]     c_48_68   1
    x[68]     c_49_68   1
    x[68]     c_52_68   1
    x[68]     c_53_68   1
    x[68]     c_54_68   1
    x[68]     c_56_68   1
    x[68]     c_57_68   1
    x[68]     c_58_68   1
    x[68]     c_60_68   1
    x[68]     c_61_68   1
    x[68]     c_62_68   1
    x[68]     c_63_68   1
    x[68]     c_65_68   1
    x[68]     c_66_68   1
    x[68]     c_68_70   1
    x[68]     c_68_71   1
    x[68]     c_68_78   1
    x[68]     c_68_87   1
    x[68]     c_68_88   1
    x[68]     c_68_89   1
    x[68]     c_68_90   1
    x[68]     c_68_94   1
    x[68]     c_68_97   1
    x[69]     OBJ       -7
    x[69]     c_0_69    1
    x[69]     c_1_69    1
    x[69]     c_4_69    1
    x[69]     c_5_69    1
    x[69]     c_6_69    1
    x[69]     c_7_69    1
    x[69]     c_8_69    1
    x[69]     c_9_69    1
    x[69]     c_11_69   1
    x[69]     c_14_69   1
    x[69]     c_17_69   1
    x[69]     c_19_69   1
    x[69]     c_20_69   1
    x[69]     c_21_69   1
    x[69]     c_24_69   1
    x[69]     c_29_69   1
    x[69]     c_30_69   1
    x[69]     c_31_69   1
    x[69]     c_32_69   1
    x[69]     c_33_69   1
    x[69]     c_35_69   1
    x[69]     c_38_69   1
    x[69]     c_39_69   1
    x[69]     c_40_69   1
    x[69]     c_44_69   1
    x[69]     c_49_69   1
    x[69]     c_53_69   1
    x[69]     c_56_69   1
    x[69]     c_57_69   1
    x[69]     c_58_69   1
    x[69]     c_60_69   1
    x[69]     c_61_69   1
    x[69]     c_62_69   1
    x[69]     c_63_69   1
    x[69]     c_64_69   1
    x[69]     c_65_69   1
    x[69]     c_67_69   1
    x[69]     c_69_73   1
    x[69]     c_69_74   1
    x[69]     c_69_75   1
    x[69]     c_69_76   1
    x[69]     c_69_84   1
    x[69]     c_69_86   1
    x[69]     c_69_91   1
    x[69]     c_69_99   1
    x[70]     OBJ       -7
    x[70]     c_0_70    1
    x[70]     c_1_70    1
    x[70]     c_3_70    1
    x[70]     c_4_70    1
    x[70]     c_6_70    1
    x[70]     c_7_70    1
    x[70]     c_10_70   1
    x[70]     c_14_70   1
    x[70]     c_15_70   1
    x[70]     c_16_70   1
    x[70]     c_17_70   1
    x[70]     c_18_70   1
    x[70]     c_19_70   1
    x[70]     c_20_70   1
    x[70]     c_21_70   1
    x[70]     c_22_70   1
    x[70]     c_24_70   1
    x[70]     c_25_70   1
    x[70]     c_26_70   1
    x[70]     c_29_70   1
    x[70]     c_30_70   1
    x[70]     c_33_70   1
    x[70]     c_34_70   1
    x[70]     c_35_70   1
    x[70]     c_37_70   1
    x[70]     c_39_70   1
    x[70]     c_40_70   1
    x[70]     c_41_70   1
    x[70]     c_42_70   1
    x[70]     c_43_70   1
    x[70]     c_44_70   1
    x[70]     c_45_70   1
    x[70]     c_48_70   1
    x[70]     c_49_70   1
    x[70]     c_50_70   1
    x[70]     c_52_70   1
    x[70]     c_54_70   1
    x[70]     c_56_70   1
    x[70]     c_57_70   1
    x[70]     c_60_70   1
    x[70]     c_62_70   1
    x[70]     c_64_70   1
    x[70]     c_65_70   1
    x[70]     c_66_70   1
    x[70]     c_67_70   1
    x[70]     c_68_70   1
    x[70]     c_70_74   1
    x[70]     c_70_77   1
    x[70]     c_70_78   1
    x[70]     c_70_84   1
    x[70]     c_70_85   1
    x[70]     c_70_86   1
    x[70]     c_70_87   1
    x[70]     c_70_88   1
    x[70]     c_70_89   1
    x[70]     c_70_90   1
    x[70]     c_70_92   1
    x[70]     c_70_94   1
    x[70]     c_70_97   1
    x[71]     OBJ       -5
    x[71]     c_0_71    1
    x[71]     c_1_71    1
    x[71]     c_3_71    1
    x[71]     c_6_71    1
    x[71]     c_10_71   1
    x[71]     c_11_71   1
    x[71]     c_12_71   1
    x[71]     c_16_71   1
    x[71]     c_18_71   1
    x[71]     c_20_71   1
    x[71]     c_23_71   1
    x[71]     c_24_71   1
    x[71]     c_25_71   1
    x[71]     c_30_71   1
    x[71]     c_32_71   1
    x[71]     c_33_71   1
    x[71]     c_41_71   1
    x[71]     c_42_71   1
    x[71]     c_44_71   1
    x[71]     c_46_71   1
    x[71]     c_50_71   1
    x[71]     c_51_71   1
    x[71]     c_53_71   1
    x[71]     c_54_71   1
    x[71]     c_55_71   1
    x[71]     c_62_71   1
    x[71]     c_63_71   1
    x[71]     c_65_71   1
    x[71]     c_68_71   1
    x[71]     c_71_74   1
    x[71]     c_71_77   1
    x[71]     c_71_79   1
    x[71]     c_71_81   1
    x[71]     c_71_87   1
    x[71]     c_71_89   1
    x[71]     c_71_90   1
    x[71]     c_71_92   1
    x[71]     c_71_94   1
    x[71]     c_71_98   1
    x[72]     OBJ       -9
    x[73]     OBJ       -6
    x[73]     c_5_73    1
    x[73]     c_15_73   1
    x[73]     c_17_73   1
    x[73]     c_20_73   1
    x[73]     c_21_73   1
    x[73]     c_25_73   1
    x[73]     c_27_73   1
    x[73]     c_31_73   1
    x[73]     c_34_73   1
    x[73]     c_36_73   1
    x[73]     c_39_73   1
    x[73]     c_48_73   1
    x[73]     c_49_73   1
    x[73]     c_53_73   1
    x[73]     c_54_73   1
    x[73]     c_57_73   1
    x[73]     c_61_73   1
    x[73]     c_67_73   1
    x[73]     c_69_73   1
    x[73]     c_73_77   1
    x[73]     c_73_81   1
    x[73]     c_73_83   1
    x[73]     c_73_84   1
    x[73]     c_73_85   1
    x[73]     c_73_86   1
    x[73]     c_73_94   1
    x[73]     c_73_99   1
    x[74]     OBJ       -1
    x[74]     c_0_74    1
    x[74]     c_1_74    1
    x[74]     c_3_74    1
    x[74]     c_6_74    1
    x[74]     c_7_74    1
    x[74]     c_8_74    1
    x[74]     c_11_74   1
    x[74]     c_14_74   1
    x[74]     c_16_74   1
    x[74]     c_17_74   1
    x[74]     c_18_74   1
    x[74]     c_19_74   1
    x[74]     c_20_74   1
    x[74]     c_21_74   1
    x[74]     c_22_74   1
    x[74]     c_26_74   1
    x[74]     c_28_74   1
    x[74]     c_29_74   1
    x[74]     c_31_74   1
    x[74]     c_38_74   1
    x[74]     c_39_74   1
    x[74]     c_41_74   1
    x[74]     c_44_74   1
    x[74]     c_45_74   1
    x[74]     c_47_74   1
    x[74]     c_48_74   1
    x[74]     c_50_74   1
    x[74]     c_51_74   1
    x[74]     c_52_74   1
    x[74]     c_54_74   1
    x[74]     c_55_74   1
    x[74]     c_57_74   1
    x[74]     c_58_74   1
    x[74]     c_62_74   1
    x[74]     c_63_74   1
    x[74]     c_64_74   1
    x[74]     c_65_74   1
    x[74]     c_69_74   1
    x[74]     c_70_74   1
    x[74]     c_71_74   1
    x[74]     c_74_77   1
    x[74]     c_74_78   1
    x[74]     c_74_81   1
    x[74]     c_74_83   1
    x[74]     c_74_84   1
    x[74]     c_74_85   1
    x[74]     c_74_89   1
    x[74]     c_74_91   1
    x[74]     c_74_92   1
    x[74]     c_74_94   1
    x[74]     c_74_95   1
    x[74]     c_74_96   1
    x[74]     c_74_98   1
    x[74]     c_74_99   1
    x[75]     OBJ       -8
    x[75]     c_2_75    1
    x[75]     c_4_75    1
    x[75]     c_5_75    1
    x[75]     c_7_75    1
    x[75]     c_8_75    1
    x[75]     c_9_75    1
    x[75]     c_11_75   1
    x[75]     c_13_75   1
    x[75]     c_20_75   1
    x[75]     c_21_75   1
    x[75]     c_22_75   1
    x[75]     c_27_75   1
    x[75]     c_30_75   1
    x[75]     c_31_75   1
    x[75]     c_32_75   1
    x[75]     c_35_75   1
    x[75]     c_36_75   1
    x[75]     c_40_75   1
    x[75]     c_41_75   1
    x[75]     c_42_75   1
    x[75]     c_44_75   1
    x[75]     c_47_75   1
    x[75]     c_49_75   1
    x[75]     c_54_75   1
    x[75]     c_56_75   1
    x[75]     c_57_75   1
    x[75]     c_60_75   1
    x[75]     c_61_75   1
    x[75]     c_63_75   1
    x[75]     c_65_75   1
    x[75]     c_67_75   1
    x[75]     c_69_75   1
    x[75]     c_75_77   1
    x[75]     c_75_78   1
    x[75]     c_75_79   1
    x[75]     c_75_80   1
    x[75]     c_75_83   1
    x[75]     c_75_87   1
    x[75]     c_75_89   1
    x[75]     c_75_91   1
    x[75]     c_75_92   1
    x[75]     c_75_95   1
    x[75]     c_75_99   1
    x[76]     OBJ       -6
    x[76]     c_1_76    1
    x[76]     c_5_76    1
    x[76]     c_6_76    1
    x[76]     c_9_76    1
    x[76]     c_23_76   1
    x[76]     c_24_76   1
    x[76]     c_29_76   1
    x[76]     c_30_76   1
    x[76]     c_32_76   1
    x[76]     c_33_76   1
    x[76]     c_44_76   1
    x[76]     c_49_76   1
    x[76]     c_56_76   1
    x[76]     c_62_76   1
    x[76]     c_63_76   1
    x[76]     c_69_76   1
    x[76]     c_76_79   1
    x[76]     c_76_80   1
    x[76]     c_76_84   1
    x[76]     c_76_86   1
    x[76]     c_76_94   1
    x[76]     c_76_97   1
    x[76]     c_76_99   1
    x[77]     OBJ       -7
    x[77]     c_0_77    1
    x[77]     c_1_77    1
    x[77]     c_2_77    1
    x[77]     c_3_77    1
    x[77]     c_5_77    1
    x[77]     c_6_77    1
    x[77]     c_11_77   1
    x[77]     c_12_77   1
    x[77]     c_13_77   1
    x[77]     c_14_77   1
    x[77]     c_15_77   1
    x[77]     c_16_77   1
    x[77]     c_17_77   1
    x[77]     c_19_77   1
    x[77]     c_20_77   1
    x[77]     c_21_77   1
    x[77]     c_22_77   1
    x[77]     c_23_77   1
    x[77]     c_25_77   1
    x[77]     c_27_77   1
    x[77]     c_30_77   1
    x[77]     c_31_77   1
    x[77]     c_32_77   1
    x[77]     c_33_77   1
    x[77]     c_34_77   1
    x[77]     c_36_77   1
    x[77]     c_37_77   1
    x[77]     c_41_77   1
    x[77]     c_42_77   1
    x[77]     c_49_77   1
    x[77]     c_50_77   1
    x[77]     c_51_77   1
    x[77]     c_53_77   1
    x[77]     c_54_77   1
    x[77]     c_56_77   1
    x[77]     c_58_77   1
    x[77]     c_60_77   1
    x[77]     c_61_77   1
    x[77]     c_63_77   1
    x[77]     c_65_77   1
    x[77]     c_66_77   1
    x[77]     c_67_77   1
    x[77]     c_70_77   1
    x[77]     c_71_77   1
    x[77]     c_73_77   1
    x[77]     c_74_77   1
    x[77]     c_75_77   1
    x[77]     c_77_81   1
    x[77]     c_77_83   1
    x[77]     c_77_85   1
    x[77]     c_77_86   1
    x[77]     c_77_87   1
    x[77]     c_77_89   1
    x[77]     c_77_91   1
    x[77]     c_77_92   1
    x[77]     c_77_93   1
    x[77]     c_77_94   1
    x[77]     c_77_95   1
    x[77]     c_77_96   1
    x[77]     c_77_97   1
    x[77]     c_77_99   1
    x[78]     OBJ       -6
    x[78]     c_3_78    1
    x[78]     c_4_78    1
    x[78]     c_6_78    1
    x[78]     c_7_78    1
    x[78]     c_8_78    1
    x[78]     c_9_78    1
    x[78]     c_10_78   1
    x[78]     c_11_78   1
    x[78]     c_13_78   1
    x[78]     c_15_78   1
    x[78]     c_18_78   1
    x[78]     c_19_78   1
    x[78]     c_24_78   1
    x[78]     c_26_78   1
    x[78]     c_27_78   1
    x[78]     c_28_78   1
    x[78]     c_29_78   1
    x[78]     c_30_78   1
    x[78]     c_31_78   1
    x[78]     c_32_78   1
    x[78]     c_34_78   1
    x[78]     c_35_78   1
    x[78]     c_41_78   1
    x[78]     c_42_78   1
    x[78]     c_43_78   1
    x[78]     c_44_78   1
    x[78]     c_45_78   1
    x[78]     c_49_78   1
    x[78]     c_52_78   1
    x[78]     c_56_78   1
    x[78]     c_57_78   1
    x[78]     c_60_78   1
    x[78]     c_62_78   1
    x[78]     c_63_78   1
    x[78]     c_68_78   1
    x[78]     c_70_78   1
    x[78]     c_74_78   1
    x[78]     c_75_78   1
    x[78]     c_78_79   1
    x[78]     c_78_80   1
    x[78]     c_78_83   1
    x[78]     c_78_86   1
    x[78]     c_78_88   1
    x[78]     c_78_89   1
    x[78]     c_78_91   1
    x[78]     c_78_92   1
    x[78]     c_78_95   1
    x[78]     c_78_99   1
    x[79]     OBJ       -6
    x[79]     c_3_79    1
    x[79]     c_5_79    1
    x[79]     c_6_79    1
    x[79]     c_7_79    1
    x[79]     c_9_79    1
    x[79]     c_10_79   1
    x[79]     c_11_79   1
    x[79]     c_15_79   1
    x[79]     c_19_79   1
    x[79]     c_21_79   1
    x[79]     c_22_79   1
    x[79]     c_23_79   1
    x[79]     c_25_79   1
    x[79]     c_28_79   1
    x[79]     c_29_79   1
    x[79]     c_30_79   1
    x[79]     c_31_79   1
    x[79]     c_32_79   1
    x[79]     c_33_79   1
    x[79]     c_34_79   1
    x[79]     c_35_79   1
    x[79]     c_38_79   1
    x[79]     c_40_79   1
    x[79]     c_41_79   1
    x[79]     c_42_79   1
    x[79]     c_44_79   1
    x[79]     c_45_79   1
    x[79]     c_47_79   1
    x[79]     c_49_79   1
    x[79]     c_51_79   1
    x[79]     c_52_79   1
    x[79]     c_53_79   1
    x[79]     c_54_79   1
    x[79]     c_55_79   1
    x[79]     c_57_79   1
    x[79]     c_58_79   1
    x[79]     c_61_79   1
    x[79]     c_63_79   1
    x[79]     c_67_79   1
    x[79]     c_71_79   1
    x[79]     c_75_79   1
    x[79]     c_76_79   1
    x[79]     c_78_79   1
    x[79]     c_79_80   1
    x[79]     c_79_83   1
    x[79]     c_79_84   1
    x[79]     c_79_86   1
    x[79]     c_79_87   1
    x[79]     c_79_88   1
    x[79]     c_79_89   1
    x[79]     c_79_90   1
    x[79]     c_79_94   1
    x[79]     c_79_96   1
    x[79]     c_79_97   1
    x[79]     c_79_99   1
    x[80]     OBJ       -1
    x[80]     c_5_80    1
    x[80]     c_9_80    1
    x[80]     c_13_80   1
    x[80]     c_21_80   1
    x[80]     c_23_80   1
    x[80]     c_27_80   1
    x[80]     c_28_80   1
    x[80]     c_29_80   1
    x[80]     c_30_80   1
    x[80]     c_31_80   1
    x[80]     c_32_80   1
    x[80]     c_33_80   1
    x[80]     c_35_80   1
    x[80]     c_42_80   1
    x[80]     c_44_80   1
    x[80]     c_47_80   1
    x[80]     c_49_80   1
    x[80]     c_75_80   1
    x[80]     c_76_80   1
    x[80]     c_78_80   1
    x[80]     c_79_80   1
    x[80]     c_80_83   1
    x[80]     c_80_89   1
    x[80]     c_80_91   1
    x[80]     c_80_92   1
    x[80]     c_80_94   1
    x[80]     c_80_95   1
    x[80]     c_80_96   1
    x[80]     c_80_97   1
    x[80]     c_80_99   1
    x[81]     OBJ       -6
    x[81]     c_5_81    1
    x[81]     c_11_81   1
    x[81]     c_15_81   1
    x[81]     c_17_81   1
    x[81]     c_18_81   1
    x[81]     c_20_81   1
    x[81]     c_31_81   1
    x[81]     c_36_81   1
    x[81]     c_41_81   1
    x[81]     c_44_81   1
    x[81]     c_51_81   1
    x[81]     c_54_81   1
    x[81]     c_55_81   1
    x[81]     c_62_81   1
    x[81]     c_63_81   1
    x[81]     c_65_81   1
    x[81]     c_71_81   1
    x[81]     c_73_81   1
    x[81]     c_74_81   1
    x[81]     c_77_81   1
    x[81]     c_81_83   1
    x[81]     c_81_85   1
    x[81]     c_81_98   1
    x[81]     c_81_99   1
    x[82]     OBJ       -8
    x[83]     OBJ       -4
    x[83]     c_2_83    1
    x[83]     c_3_83    1
    x[83]     c_5_83    1
    x[83]     c_7_83    1
    x[83]     c_8_83    1
    x[83]     c_11_83   1
    x[83]     c_15_83   1
    x[83]     c_17_83   1
    x[83]     c_20_83   1
    x[83]     c_21_83   1
    x[83]     c_23_83   1
    x[83]     c_26_83   1
    x[83]     c_28_83   1
    x[83]     c_29_83   1
    x[83]     c_31_83   1
    x[83]     c_32_83   1
    x[83]     c_36_83   1
    x[83]     c_42_83   1
    x[83]     c_44_83   1
    x[83]     c_45_83   1
    x[83]     c_47_83   1
    x[83]     c_54_83   1
    x[83]     c_56_83   1
    x[83]     c_57_83   1
    x[83]     c_61_83   1
    x[83]     c_63_83   1
    x[83]     c_65_83   1
    x[83]     c_73_83   1
    x[83]     c_74_83   1
    x[83]     c_75_83   1
    x[83]     c_77_83   1
    x[83]     c_78_83   1
    x[83]     c_79_83   1
    x[83]     c_80_83   1
    x[83]     c_81_83   1
    x[83]     c_83_85   1
    x[83]     c_83_89   1
    x[83]     c_83_92   1
    x[83]     c_83_94   1
    x[83]     c_83_96   1
    x[83]     c_83_99   1
    x[84]     OBJ       -7
    x[84]     c_1_84    1
    x[84]     c_5_84    1
    x[84]     c_6_84    1
    x[84]     c_7_84    1
    x[84]     c_9_84    1
    x[84]     c_11_84   1
    x[84]     c_12_84   1
    x[84]     c_15_84   1
    x[84]     c_16_84   1
    x[84]     c_17_84   1
    x[84]     c_18_84   1
    x[84]     c_19_84   1
    x[84]     c_20_84   1
    x[84]     c_21_84   1
    x[84]     c_22_84   1
    x[84]     c_23_84   1
    x[84]     c_24_84   1
    x[84]     c_25_84   1
    x[84]     c_26_84   1
    x[84]     c_27_84   1
    x[84]     c_29_84   1
    x[84]     c_30_84   1
    x[84]     c_31_84   1
    x[84]     c_32_84   1
    x[84]     c_34_84   1
    x[84]     c_38_84   1
    x[84]     c_39_84   1
    x[84]     c_41_84   1
    x[84]     c_43_84   1
    x[84]     c_44_84   1
    x[84]     c_45_84   1
    x[84]     c_46_84   1
    x[84]     c_48_84   1
    x[84]     c_49_84   1
    x[84]     c_50_84   1
    x[84]     c_52_84   1
    x[84]     c_54_84   1
    x[84]     c_55_84   1
    x[84]     c_56_84   1
    x[84]     c_57_84   1
    x[84]     c_58_84   1
    x[84]     c_60_84   1
    x[84]     c_62_84   1
    x[84]     c_63_84   1
    x[84]     c_67_84   1
    x[84]     c_69_84   1
    x[84]     c_70_84   1
    x[84]     c_73_84   1
    x[84]     c_74_84   1
    x[84]     c_76_84   1
    x[84]     c_79_84   1
    x[84]     c_84_85   1
    x[84]     c_84_86   1
    x[84]     c_84_90   1
    x[84]     c_84_91   1
    x[84]     c_84_92   1
    x[84]     c_84_95   1
    x[84]     c_84_98   1
    x[84]     c_84_99   1
    x[85]     OBJ       -1
    x[85]     c_5_85    1
    x[85]     c_6_85    1
    x[85]     c_12_85   1
    x[85]     c_15_85   1
    x[85]     c_16_85   1
    x[85]     c_17_85   1
    x[85]     c_19_85   1
    x[85]     c_20_85   1
    x[85]     c_21_85   1
    x[85]     c_22_85   1
    x[85]     c_23_85   1
    x[85]     c_26_85   1
    x[85]     c_28_85   1
    x[85]     c_31_85   1
    x[85]     c_36_85   1
    x[85]     c_38_85   1
    x[85]     c_39_85   1
    x[85]     c_41_85   1
    x[85]     c_43_85   1
    x[85]     c_50_85   1
    x[85]     c_51_85   1
    x[85]     c_52_85   1
    x[85]     c_54_85   1
    x[85]     c_58_85   1
    x[85]     c_60_85   1
    x[85]     c_62_85   1
    x[85]     c_64_85   1
    x[85]     c_67_85   1
    x[85]     c_70_85   1
    x[85]     c_73_85   1
    x[85]     c_74_85   1
    x[85]     c_77_85   1
    x[85]     c_81_85   1
    x[85]     c_83_85   1
    x[85]     c_84_85   1
    x[85]     c_85_89   1
    x[85]     c_85_91   1
    x[85]     c_85_92   1
    x[85]     c_85_94   1
    x[85]     c_85_95   1
    x[85]     c_85_97   1
    x[85]     c_85_99   1
    x[86]     OBJ       -4
    x[86]     c_1_86    1
    x[86]     c_4_86    1
    x[86]     c_5_86    1
    x[86]     c_6_86    1
    x[86]     c_7_86    1
    x[86]     c_9_86    1
    x[86]     c_10_86   1
    x[86]     c_11_86   1
    x[86]     c_15_86   1
    x[86]     c_16_86   1
    x[86]     c_17_86   1
    x[86]     c_19_86   1
    x[86]     c_21_86   1
    x[86]     c_22_86   1
    x[86]     c_23_86   1
    x[86]     c_24_86   1
    x[86]     c_25_86   1
    x[86]     c_27_86   1
    x[86]     c_29_86   1
    x[86]     c_30_86   1
    x[86]     c_31_86   1
    x[86]     c_32_86   1
    x[86]     c_34_86   1
    x[86]     c_35_86   1
    x[86]     c_36_86   1
    x[86]     c_37_86   1
    x[86]     c_39_86   1
    x[86]     c_40_86   1
    x[86]     c_43_86   1
    x[86]     c_44_86   1
    x[86]     c_47_86   1
    x[86]     c_48_86   1
    x[86]     c_49_86   1
    x[86]     c_50_86   1
    x[86]     c_52_86   1
    x[86]     c_54_86   1
    x[86]     c_56_86   1
    x[86]     c_57_86   1
    x[86]     c_60_86   1
    x[86]     c_62_86   1
    x[86]     c_63_86   1
    x[86]     c_64_86   1
    x[86]     c_66_86   1
    x[86]     c_69_86   1
    x[86]     c_70_86   1
    x[86]     c_73_86   1
    x[86]     c_76_86   1
    x[86]     c_77_86   1
    x[86]     c_78_86   1
    x[86]     c_79_86   1
    x[86]     c_84_86   1
    x[86]     c_86_87   1
    x[86]     c_86_89   1
    x[86]     c_86_90   1
    x[86]     c_86_95   1
    x[86]     c_86_99   1
    x[87]     OBJ       -5
    x[87]     c_0_87    1
    x[87]     c_1_87    1
    x[87]     c_3_87    1
    x[87]     c_4_87    1
    x[87]     c_5_87    1
    x[87]     c_7_87    1
    x[87]     c_10_87   1
    x[87]     c_12_87   1
    x[87]     c_14_87   1
    x[87]     c_15_87   1
    x[87]     c_16_87   1
    x[87]     c_17_87   1
    x[87]     c_18_87   1
    x[87]     c_20_87   1
    x[87]     c_22_87   1
    x[87]     c_25_87   1
    x[87]     c_27_87   1
    x[87]     c_29_87   1
    x[87]     c_30_87   1
    x[87]     c_32_87   1
    x[87]     c_33_87   1
    x[87]     c_34_87   1
    x[87]     c_35_87   1
    x[87]     c_37_87   1
    x[87]     c_39_87   1
    x[87]     c_40_87   1
    x[87]     c_41_87   1
    x[87]     c_42_87   1
    x[87]     c_43_87   1
    x[87]     c_44_87   1
    x[87]     c_45_87   1
    x[87]     c_47_87   1
    x[87]     c_49_87   1
    x[87]     c_50_87   1
    x[87]     c_52_87   1
    x[87]     c_54_87   1
    x[87]     c_57_87   1
    x[87]     c_60_87   1
    x[87]     c_61_87   1
    x[87]     c_64_87   1
    x[87]     c_66_87   1
    x[87]     c_67_87   1
    x[87]     c_68_87   1
    x[87]     c_70_87   1
    x[87]     c_71_87   1
    x[87]     c_75_87   1
    x[87]     c_77_87   1
    x[87]     c_79_87   1
    x[87]     c_86_87   1
    x[87]     c_87_88   1
    x[87]     c_87_89   1
    x[87]     c_87_90   1
    x[87]     c_87_92   1
    x[87]     c_87_93   1
    x[87]     c_87_94   1
    x[87]     c_87_97   1
    x[88]     OBJ       -10
    x[88]     c_7_88    1
    x[88]     c_9_88    1
    x[88]     c_10_88   1
    x[88]     c_13_88   1
    x[88]     c_15_88   1
    x[88]     c_19_88   1
    x[88]     c_24_88   1
    x[88]     c_25_88   1
    x[88]     c_33_88   1
    x[88]     c_35_88   1
    x[88]     c_42_88   1
    x[88]     c_43_88   1
    x[88]     c_49_88   1
    x[88]     c_52_88   1
    x[88]     c_60_88   1
    x[88]     c_66_88   1
    x[88]     c_68_88   1
    x[88]     c_70_88   1
    x[88]     c_78_88   1
    x[88]     c_79_88   1
    x[88]     c_87_88   1
    x[88]     c_88_89   1
    x[88]     c_88_94   1
    x[89]     OBJ       -3
    x[89]     c_0_89    1
    x[89]     c_1_89    1
    x[89]     c_3_89    1
    x[89]     c_6_89    1
    x[89]     c_7_89    1
    x[89]     c_8_89    1
    x[89]     c_9_89    1
    x[89]     c_11_89   1
    x[89]     c_12_89   1
    x[89]     c_13_89   1
    x[89]     c_15_89   1
    x[89]     c_16_89   1
    x[89]     c_19_89   1
    x[89]     c_20_89   1
    x[89]     c_23_89   1
    x[89]     c_25_89   1
    x[89]     c_26_89   1
    x[89]     c_27_89   1
    x[89]     c_28_89   1
    x[89]     c_29_89   1
    x[89]     c_30_89   1
    x[89]     c_31_89   1
    x[89]     c_32_89   1
    x[89]     c_33_89   1
    x[89]     c_34_89   1
    x[89]     c_35_89   1
    x[89]     c_36_89   1
    x[89]     c_37_89   1
    x[89]     c_38_89   1
    x[89]     c_42_89   1
    x[89]     c_43_89   1
    x[89]     c_44_89   1
    x[89]     c_45_89   1
    x[89]     c_49_89   1
    x[89]     c_50_89   1
    x[89]     c_52_89   1
    x[89]     c_54_89   1
    x[89]     c_57_89   1
    x[89]     c_60_89   1
    x[89]     c_62_89   1
    x[89]     c_63_89   1
    x[89]     c_64_89   1
    x[89]     c_66_89   1
    x[89]     c_68_89   1
    x[89]     c_70_89   1
    x[89]     c_71_89   1
    x[89]     c_74_89   1
    x[89]     c_75_89   1
    x[89]     c_77_89   1
    x[89]     c_78_89   1
    x[89]     c_79_89   1
    x[89]     c_80_89   1
    x[89]     c_83_89   1
    x[89]     c_85_89   1
    x[89]     c_86_89   1
    x[89]     c_87_89   1
    x[89]     c_88_89   1
    x[89]     c_89_91   1
    x[89]     c_89_92   1
    x[89]     c_89_94   1
    x[89]     c_89_95   1
    x[89]     c_89_96   1
    x[89]     c_89_99   1
    x[90]     OBJ       -3
    x[90]     c_3_90    1
    x[90]     c_6_90    1
    x[90]     c_7_90    1
    x[90]     c_9_90    1
    x[90]     c_10_90   1
    x[90]     c_11_90   1
    x[90]     c_17_90   1
    x[90]     c_22_90   1
    x[90]     c_24_90   1
    x[90]     c_29_90   1
    x[90]     c_30_90   1
    x[90]     c_34_90   1
    x[90]     c_35_90   1
    x[90]     c_36_90   1
    x[90]     c_37_90   1
    x[90]     c_38_90   1
    x[90]     c_40_90   1
    x[90]     c_41_90   1
    x[90]     c_43_90   1
    x[90]     c_44_90   1
    x[90]     c_46_90   1
    x[90]     c_48_90   1
    x[90]     c_49_90   1
    x[90]     c_50_90   1
    x[90]     c_51_90   1
    x[90]     c_53_90   1
    x[90]     c_54_90   1
    x[90]     c_55_90   1
    x[90]     c_58_90   1
    x[90]     c_60_90   1
    x[90]     c_63_90   1
    x[90]     c_64_90   1
    x[90]     c_68_90   1
    x[90]     c_70_90   1
    x[90]     c_71_90   1
    x[90]     c_79_90   1
    x[90]     c_84_90   1
    x[90]     c_86_90   1
    x[90]     c_87_90   1
    x[90]     c_90_99   1
    x[91]     OBJ       -5
    x[91]     c_6_91    1
    x[91]     c_7_91    1
    x[91]     c_9_91    1
    x[91]     c_13_91   1
    x[91]     c_14_91   1
    x[91]     c_15_91   1
    x[91]     c_21_91   1
    x[91]     c_22_91   1
    x[91]     c_24_91   1
    x[91]     c_27_91   1
    x[91]     c_30_91   1
    x[91]     c_31_91   1
    x[91]     c_32_91   1
    x[91]     c_33_91   1
    x[91]     c_35_91   1
    x[91]     c_41_91   1
    x[91]     c_42_91   1
    x[91]     c_43_91   1
    x[91]     c_44_91   1
    x[91]     c_46_91   1
    x[91]     c_50_91   1
    x[91]     c_58_91   1
    x[91]     c_62_91   1
    x[91]     c_67_91   1
    x[91]     c_69_91   1
    x[91]     c_74_91   1
    x[91]     c_75_91   1
    x[91]     c_77_91   1
    x[91]     c_78_91   1
    x[91]     c_80_91   1
    x[91]     c_84_91   1
    x[91]     c_85_91   1
    x[91]     c_89_91   1
    x[91]     c_91_92   1
    x[91]     c_91_95   1
    x[91]     c_91_99   1
    x[92]     OBJ       -10
    x[92]     c_0_92    1
    x[92]     c_1_92    1
    x[92]     c_2_92    1
    x[92]     c_3_92    1
    x[92]     c_5_92    1
    x[92]     c_6_92    1
    x[92]     c_9_92    1
    x[92]     c_11_92   1
    x[92]     c_13_92   1
    x[92]     c_14_92   1
    x[92]     c_15_92   1
    x[92]     c_16_92   1
    x[92]     c_17_92   1
    x[92]     c_18_92   1
    x[92]     c_20_92   1
    x[92]     c_21_92   1
    x[92]     c_22_92   1
    x[92]     c_23_92   1
    x[92]     c_25_92   1
    x[92]     c_26_92   1
    x[92]     c_27_92   1
    x[92]     c_28_92   1
    x[92]     c_29_92   1
    x[92]     c_30_92   1
    x[92]     c_31_92   1
    x[92]     c_32_92   1
    x[92]     c_34_92   1
    x[92]     c_35_92   1
    x[92]     c_36_92   1
    x[92]     c_38_92   1
    x[92]     c_41_92   1
    x[92]     c_42_92   1
    x[92]     c_43_92   1
    x[92]     c_44_92   1
    x[92]     c_45_92   1
    x[92]     c_48_92   1
    x[92]     c_50_92   1
    x[92]     c_54_92   1
    x[92]     c_56_92   1
    x[92]     c_58_92   1
    x[92]     c_60_92   1
    x[92]     c_61_92   1
    x[92]     c_62_92   1
    x[92]     c_63_92   1
    x[92]     c_64_92   1
    x[92]     c_65_92   1
    x[92]     c_66_92   1
    x[92]     c_67_92   1
    x[92]     c_70_92   1
    x[92]     c_71_92   1
    x[92]     c_74_92   1
    x[92]     c_75_92   1
    x[92]     c_77_92   1
    x[92]     c_78_92   1
    x[92]     c_80_92   1
    x[92]     c_83_92   1
    x[92]     c_84_92   1
    x[92]     c_85_92   1
    x[92]     c_87_92   1
    x[92]     c_89_92   1
    x[92]     c_91_92   1
    x[92]     c_92_93   1
    x[92]     c_92_95   1
    x[92]     c_92_98   1
    x[92]     c_92_99   1
    x[93]     OBJ       -9
    x[93]     c_0_93    1
    x[93]     c_1_93    1
    x[93]     c_12_93   1
    x[93]     c_16_93   1
    x[93]     c_20_93   1
    x[93]     c_23_93   1
    x[93]     c_30_93   1
    x[93]     c_32_93   1
    x[93]     c_33_93   1
    x[93]     c_42_93   1
    x[93]     c_50_93   1
    x[93]     c_54_93   1
    x[93]     c_77_93   1
    x[93]     c_87_93   1
    x[93]     c_92_93   1
    x[94]     OBJ       -1
    x[94]     c_5_94    1
    x[94]     c_7_94    1
    x[94]     c_9_94    1
    x[94]     c_11_94   1
    x[94]     c_15_94   1
    x[94]     c_17_94   1
    x[94]     c_18_94   1
    x[94]     c_20_94   1
    x[94]     c_23_94   1
    x[94]     c_31_94   1
    x[94]     c_33_94   1
    x[94]     c_36_94   1
    x[94]     c_41_94   1
    x[94]     c_42_94   1
    x[94]     c_44_94   1
    x[94]     c_49_94   1
    x[94]     c_51_94   1
    x[94]     c_52_94   1
    x[94]     c_54_94   1
    x[94]     c_55_94   1
    x[94]     c_60_94   1
    x[94]     c_62_94   1
    x[94]     c_63_94   1
    x[94]     c_65_94   1
    x[94]     c_66_94   1
    x[94]     c_68_94   1
    x[94]     c_70_94   1
    x[94]     c_71_94   1
    x[94]     c_73_94   1
    x[94]     c_74_94   1
    x[94]     c_76_94   1
    x[94]     c_77_94   1
    x[94]     c_79_94   1
    x[94]     c_80_94   1
    x[94]     c_83_94   1
    x[94]     c_85_94   1
    x[94]     c_87_94   1
    x[94]     c_88_94   1
    x[94]     c_89_94   1
    x[94]     c_94_97   1
    x[94]     c_94_98   1
    x[94]     c_94_99   1
    x[95]     OBJ       -3
    x[95]     c_4_95    1
    x[95]     c_6_95    1
    x[95]     c_7_95    1
    x[95]     c_9_95    1
    x[95]     c_11_95   1
    x[95]     c_12_95   1
    x[95]     c_13_95   1
    x[95]     c_15_95   1
    x[95]     c_19_95   1
    x[95]     c_21_95   1
    x[95]     c_22_95   1
    x[95]     c_23_95   1
    x[95]     c_27_95   1
    x[95]     c_30_95   1
    x[95]     c_31_95   1
    x[95]     c_32_95   1
    x[95]     c_35_95   1
    x[95]     c_39_95   1
    x[95]     c_41_95   1
    x[95]     c_42_95   1
    x[95]     c_43_95   1
    x[95]     c_44_95   1
    x[95]     c_46_95   1
    x[95]     c_50_95   1
    x[95]     c_51_95   1
    x[95]     c_54_95   1
    x[95]     c_58_95   1
    x[95]     c_67_95   1
    x[95]     c_74_95   1
    x[95]     c_75_95   1
    x[95]     c_77_95   1
    x[95]     c_78_95   1
    x[95]     c_80_95   1
    x[95]     c_84_95   1
    x[95]     c_85_95   1
    x[95]     c_86_95   1
    x[95]     c_89_95   1
    x[95]     c_91_95   1
    x[95]     c_92_95   1
    x[95]     c_95_97   1
    x[95]     c_95_99   1
    x[96]     OBJ       -9
    x[96]     c_5_96    1
    x[96]     c_6_96    1
    x[96]     c_14_96   1
    x[96]     c_19_96   1
    x[96]     c_21_96   1
    x[96]     c_23_96   1
    x[96]     c_26_96   1
    x[96]     c_28_96   1
    x[96]     c_29_96   1
    x[96]     c_32_96   1
    x[96]     c_33_96   1
    x[96]     c_36_96   1
    x[96]     c_37_96   1
    x[96]     c_44_96   1
    x[96]     c_47_96   1
    x[96]     c_48_96   1
    x[96]     c_49_96   1
    x[96]     c_74_96   1
    x[96]     c_77_96   1
    x[96]     c_79_96   1
    x[96]     c_80_96   1
    x[96]     c_83_96   1
    x[96]     c_89_96   1
    x[96]     c_96_98   1
    x[97]     OBJ       -1
    x[97]     c_4_97    1
    x[97]     c_5_97    1
    x[97]     c_9_97    1
    x[97]     c_12_97   1
    x[97]     c_14_97   1
    x[97]     c_15_97   1
    x[97]     c_18_97   1
    x[97]     c_21_97   1
    x[97]     c_23_97   1
    x[97]     c_24_97   1
    x[97]     c_33_97   1
    x[97]     c_35_97   1
    x[97]     c_39_97   1
    x[97]     c_40_97   1
    x[97]     c_45_97   1
    x[97]     c_48_97   1
    x[97]     c_49_97   1
    x[97]     c_51_97   1
    x[97]     c_54_97   1
    x[97]     c_60_97   1
    x[97]     c_65_97   1
    x[97]     c_67_97   1
    x[97]     c_68_97   1
    x[97]     c_70_97   1
    x[97]     c_76_97   1
    x[97]     c_77_97   1
    x[97]     c_79_97   1
    x[97]     c_80_97   1
    x[97]     c_85_97   1
    x[97]     c_87_97   1
    x[97]     c_94_97   1
    x[97]     c_95_97   1
    x[97]     c_97_99   1
    x[98]     OBJ       -9
    x[98]     c_5_98    1
    x[98]     c_6_98    1
    x[98]     c_11_98   1
    x[98]     c_14_98   1
    x[98]     c_16_98   1
    x[98]     c_18_98   1
    x[98]     c_19_98   1
    x[98]     c_21_98   1
    x[98]     c_26_98   1
    x[98]     c_29_98   1
    x[98]     c_34_98   1
    x[98]     c_38_98   1
    x[98]     c_41_98   1
    x[98]     c_44_98   1
    x[98]     c_45_98   1
    x[98]     c_47_98   1
    x[98]     c_48_98   1
    x[98]     c_50_98   1
    x[98]     c_51_98   1
    x[98]     c_54_98   1
    x[98]     c_55_98   1
    x[98]     c_62_98   1
    x[98]     c_63_98   1
    x[98]     c_65_98   1
    x[98]     c_71_98   1
    x[98]     c_74_98   1
    x[98]     c_81_98   1
    x[98]     c_84_98   1
    x[98]     c_92_98   1
    x[98]     c_94_98   1
    x[98]     c_96_98   1
    x[99]     OBJ       -3
    x[99]     c_0_99    1
    x[99]     c_1_99    1
    x[99]     c_5_99    1
    x[99]     c_6_99    1
    x[99]     c_7_99    1
    x[99]     c_9_99    1
    x[99]     c_11_99   1
    x[99]     c_13_99   1
    x[99]     c_15_99   1
    x[99]     c_17_99   1
    x[99]     c_19_99   1
    x[99]     c_20_99   1
    x[99]     c_22_99   1
    x[99]     c_23_99   1
    x[99]     c_26_99   1
    x[99]     c_27_99   1
    x[99]     c_28_99   1
    x[99]     c_29_99   1
    x[99]     c_30_99   1
    x[99]     c_31_99   1
    x[99]     c_32_99   1
    x[99]     c_33_99   1
    x[99]     c_35_99   1
    x[99]     c_36_99   1
    x[99]     c_38_99   1
    x[99]     c_42_99   1
    x[99]     c_43_99   1
    x[99]     c_44_99   1
    x[99]     c_48_99   1
    x[99]     c_49_99   1
    x[99]     c_54_99   1
    x[99]     c_60_99   1
    x[99]     c_62_99   1
    x[99]     c_64_99   1
    x[99]     c_69_99   1
    x[99]     c_73_99   1
    x[99]     c_74_99   1
    x[99]     c_75_99   1
    x[99]     c_76_99   1
    x[99]     c_77_99   1
    x[99]     c_78_99   1
    x[99]     c_79_99   1
    x[99]     c_80_99   1
    x[99]     c_81_99   1
    x[99]     c_83_99   1
    x[99]     c_84_99   1
    x[99]     c_85_99   1
    x[99]     c_86_99   1
    x[99]     c_89_99   1
    x[99]     c_90_99   1
    x[99]     c_91_99   1
    x[99]     c_92_99   1
    x[99]     c_94_99   1
    x[99]     c_95_99   1
    x[99]     c_97_99   1
    MARKER    'MARKER'                 'INTEND'
RHS
    RHS1      c_0_1     1
    RHS1      c_0_3     1
    RHS1      c_0_7     1
    RHS1      c_0_11    1
    RHS1      c_0_14    1
    RHS1      c_0_15    1
    RHS1      c_0_16    1
    RHS1      c_0_17    1
    RHS1      c_0_19    1
    RHS1      c_0_20    1
    RHS1      c_0_22    1
    RHS1      c_0_25    1
    RHS1      c_0_27    1
    RHS1      c_0_29    1
    RHS1      c_0_30    1
    RHS1      c_0_31    1
    RHS1      c_0_32    1
    RHS1      c_0_38    1
    RHS1      c_0_50    1
    RHS1      c_0_54    1
    RHS1      c_0_60    1
    RHS1      c_0_61    1
    RHS1      c_0_64    1
    RHS1      c_0_66    1
    RHS1      c_0_67    1
    RHS1      c_0_69    1
    RHS1      c_0_70    1
    RHS1      c_0_71    1
    RHS1      c_0_74    1
    RHS1      c_0_77    1
    RHS1      c_0_87    1
    RHS1      c_0_89    1
    RHS1      c_0_92    1
    RHS1      c_0_93    1
    RHS1      c_0_99    1
    RHS1      c_1_3     1
    RHS1      c_1_5     1
    RHS1      c_1_6     1
    RHS1      c_1_7     1
    RHS1      c_1_11    1
    RHS1      c_1_12    1
    RHS1      c_1_13    1
    RHS1      c_1_14    1
    RHS1      c_1_15    1
    RHS1      c_1_17    1
    RHS1      c_1_19    1
    RHS1      c_1_20    1
    RHS1      c_1_22    1
    RHS1      c_1_23    1
    RHS1      c_1_24    1
    RHS1      c_1_25    1
    RHS1      c_1_29    1
    RHS1      c_1_30    1
    RHS1      c_1_31    1
    RHS1      c_1_32    1
    RHS1      c_1_33    1
    RHS1      c_1_34    1
    RHS1      c_1_38    1
    RHS1      c_1_42    1
    RHS1      c_1_44    1
    RHS1      c_1_53    1
    RHS1      c_1_54    1
    RHS1      c_1_56    1
    RHS1      c_1_58    1
    RHS1      c_1_60    1
    RHS1      c_1_61    1
    RHS1      c_1_62    1
    RHS1      c_1_63    1
    RHS1      c_1_64    1
    RHS1      c_1_66    1
    RHS1      c_1_67    1
    RHS1      c_1_68    1
    RHS1      c_1_69    1
    RHS1      c_1_70    1
    RHS1      c_1_71    1
    RHS1      c_1_74    1
    RHS1      c_1_76    1
    RHS1      c_1_77    1
    RHS1      c_1_84    1
    RHS1      c_1_86    1
    RHS1      c_1_87    1
    RHS1      c_1_89    1
    RHS1      c_1_92    1
    RHS1      c_1_93    1
    RHS1      c_1_99    1
    RHS1      c_2_11    1
    RHS1      c_2_20    1
    RHS1      c_2_21    1
    RHS1      c_2_30    1
    RHS1      c_2_33    1
    RHS1      c_2_36    1
    RHS1      c_2_38    1
    RHS1      c_2_42    1
    RHS1      c_2_49    1
    RHS1      c_2_52    1
    RHS1      c_2_56    1
    RHS1      c_2_61    1
    RHS1      c_2_63    1
    RHS1      c_2_65    1
    RHS1      c_2_75    1
    RHS1      c_2_77    1
    RHS1      c_2_83    1
    RHS1      c_2_92    1
    RHS1      c_3_7     1
    RHS1      c_3_8     1
    RHS1      c_3_10    1
    RHS1      c_3_11    1
    RHS1      c_3_14    1
    RHS1      c_3_15    1
    RHS1      c_3_17    1
    RHS1      c_3_20    1
    RHS1      c_3_21    1
    RHS1      c_3_22    1
    RHS1      c_3_24    1
    RHS1      c_3_25    1
    RHS1      c_3_26    1
    RHS1      c_3_28    1
    RHS1      c_3_29    1
    RHS1      c_3_40    1
    RHS1      c_3_45    1
    RHS1      c_3_46    1
    RHS1      c_3_51    1
    RHS1      c_3_53    1
    RHS1      c_3_57    1
    RHS1      c_3_60    1
    RHS1      c_3_63    1
    RHS1      c_3_66    1
    RHS1      c_3_67    1
    RHS1      c_3_68    1
    RHS1      c_3_70    1
    RHS1      c_3_71    1
    RHS1      c_3_74    1
    RHS1      c_3_77    1
    RHS1      c_3_78    1
    RHS1      c_3_79    1
    RHS1      c_3_83    1
    RHS1      c_3_87    1
    RHS1      c_3_89    1
    RHS1      c_3_90    1
    RHS1      c_3_92    1
    RHS1      c_4_5     1
    RHS1      c_4_6     1
    RHS1      c_4_8     1
    RHS1      c_4_9     1
    RHS1      c_4_11    1
    RHS1      c_4_12    1
    RHS1      c_4_14    1
    RHS1      c_4_15    1
    RHS1      c_4_18    1
    RHS1      c_4_19    1
    RHS1      c_4_21    1
    RHS1      c_4_30    1
    RHS1      c_4_35    1
    RHS1      c_4_39    1
    RHS1      c_4_40    1
    RHS1      c_4_41    1
    RHS1      c_4_44    1
    RHS1      c_4_45    1
    RHS1      c_4_49    1
    RHS1      c_4_52    1
    RHS1      c_4_56    1
    RHS1      c_4_57    1
    RHS1      c_4_60    1
    RHS1      c_4_62    1
    RHS1      c_4_65    1
    RHS1      c_4_67    1
    RHS1      c_4_68    1
    RHS1      c_4_69    1
    RHS1      c_4_70    1
    RHS1      c_4_75    1
    RHS1      c_4_78    1
    RHS1      c_4_86    1
    RHS1      c_4_87    1
    RHS1      c_4_95    1
    RHS1      c_4_97    1
    RHS1      c_5_6     1
    RHS1      c_5_8     1
    RHS1      c_5_9     1
    RHS1      c_5_11    1
    RHS1      c_5_12    1
    RHS1      c_5_14    1
    RHS1      c_5_15    1
    RHS1      c_5_16    1
    RHS1      c_5_17    1
    RHS1      c_5_18    1
    RHS1      c_5_19    1
    RHS1      c_5_20    1
    RHS1      c_5_21    1
    RHS1      c_5_23    1
    RHS1      c_5_24    1
    RHS1      c_5_28    1
    RHS1      c_5_29    1
    RHS1      c_5_30    1
    RHS1      c_5_31    1
    RHS1      c_5_32    1
    RHS1      c_5_34    1
    RHS1      c_5_35    1
    RHS1      c_5_36    1
    RHS1      c_5_38    1
    RHS1      c_5_39    1
    RHS1      c_5_40    1
    RHS1      c_5_42    1
    RHS1      c_5_44    1
    RHS1      c_5_45    1
    RHS1      c_5_47    1
    RHS1      c_5_48    1
    RHS1      c_5_49    1
    RHS1      c_5_50    1
    RHS1      c_5_54    1
    RHS1      c_5_56    1
    RHS1      c_5_57    1
    RHS1      c_5_58    1
    RHS1      c_5_60    1
    RHS1      c_5_61    1
    RHS1      c_5_62    1
    RHS1      c_5_63    1
    RHS1      c_5_65    1
    RHS1      c_5_67    1
    RHS1      c_5_68    1
    RHS1      c_5_69    1
    RHS1      c_5_73    1
    RHS1      c_5_75    1
    RHS1      c_5_76    1
    RHS1      c_5_77    1
    RHS1      c_5_79    1
    RHS1      c_5_80    1
    RHS1      c_5_81    1
    RHS1      c_5_83    1
    RHS1      c_5_84    1
    RHS1      c_5_85    1
    RHS1      c_5_86    1
    RHS1      c_5_87    1
    RHS1      c_5_92    1
    RHS1      c_5_94    1
    RHS1      c_5_96    1
    RHS1      c_5_97    1
    RHS1      c_5_98    1
    RHS1      c_5_99    1
    RHS1      c_6_9     1
    RHS1      c_6_11    1
    RHS1      c_6_12    1
    RHS1      c_6_16    1
    RHS1      c_6_17    1
    RHS1      c_6_18    1
    RHS1      c_6_21    1
    RHS1      c_6_22    1
    RHS1      c_6_23    1
    RHS1      c_6_24    1
    RHS1      c_6_25    1
    RHS1      c_6_29    1
    RHS1      c_6_30    1
    RHS1      c_6_32    1
    RHS1      c_6_33    1
    RHS1      c_6_34    1
    RHS1      c_6_36    1
    RHS1      c_6_37    1
    RHS1      c_6_38    1
    RHS1      c_6_41    1
    RHS1      c_6_42    1
    RHS1      c_6_44    1
    RHS1      c_6_45    1
    RHS1      c_6_48    1
    RHS1      c_6_49    1
    RHS1      c_6_50    1
    RHS1      c_6_52    1
    RHS1      c_6_53    1
    RHS1      c_6_54    1
    RHS1      c_6_56    1
    RHS1      c_6_57    1
    RHS1      c_6_58    1
    RHS1      c_6_60    1
    RHS1      c_6_62    1
    RHS1      c_6_63    1
    RHS1      c_6_68    1
    RHS1      c_6_69    1
    RHS1      c_6_70    1
    RHS1      c_6_71    1
    RHS1      c_6_74    1
    RHS1      c_6_76    1
    RHS1      c_6_77    1
    RHS1      c_6_78    1
    RHS1      c_6_79    1
    RHS1      c_6_84    1
    RHS1      c_6_85    1
    RHS1      c_6_86    1
    RHS1      c_6_89    1
    RHS1      c_6_90    1
    RHS1      c_6_91    1
    RHS1      c_6_92    1
    RHS1      c_6_95    1
    RHS1      c_6_96    1
    RHS1      c_6_98    1
    RHS1      c_6_99    1
    RHS1      c_7_8     1
    RHS1      c_7_10    1
    RHS1      c_7_11    1
    RHS1      c_7_15    1
    RHS1      c_7_17    1
    RHS1      c_7_19    1
    RHS1      c_7_20    1
    RHS1      c_7_22    1
    RHS1      c_7_26    1
    RHS1      c_7_28    1
    RHS1      c_7_29    1
    RHS1      c_7_30    1
    RHS1      c_7_31    1
    RHS1      c_7_33    1
    RHS1      c_7_34    1
    RHS1      c_7_35    1
    RHS1      c_7_37    1
    RHS1      c_7_38    1
    RHS1      c_7_40    1
    RHS1      c_7_41    1
    RHS1      c_7_42    1
    RHS1      c_7_43    1
    RHS1      c_7_44    1
    RHS1      c_7_45    1
    RHS1      c_7_46    1
    RHS1      c_7_47    1
    RHS1      c_7_49    1
    RHS1      c_7_50    1
    RHS1      c_7_52    1
    RHS1      c_7_54    1
    RHS1      c_7_57    1
    RHS1      c_7_60    1
    RHS1      c_7_61    1
    RHS1      c_7_64    1
    RHS1      c_7_66    1
    RHS1      c_7_67    1
    RHS1      c_7_68    1
    RHS1      c_7_69    1
    RHS1      c_7_70    1
    RHS1      c_7_74    1
    RHS1      c_7_75    1
    RHS1      c_7_78    1
    RHS1      c_7_79    1
    RHS1      c_7_83    1
    RHS1      c_7_84    1
    RHS1      c_7_86    1
    RHS1      c_7_87    1
    RHS1      c_7_88    1
    RHS1      c_7_89    1
    RHS1      c_7_90    1
    RHS1      c_7_91    1
    RHS1      c_7_94    1
    RHS1      c_7_95    1
    RHS1      c_7_99    1
    RHS1      c_8_9     1
    RHS1      c_8_21    1
    RHS1      c_8_26    1
    RHS1      c_8_28    1
    RHS1      c_8_29    1
    RHS1      c_8_40    1
    RHS1      c_8_45    1
    RHS1      c_8_49    1
    RHS1      c_8_57    1
    RHS1      c_8_60    1
    RHS1      c_8_65    1
    RHS1      c_8_67    1
    RHS1      c_8_69    1
    RHS1      c_8_74    1
    RHS1      c_8_75    1
    RHS1      c_8_78    1
    RHS1      c_8_83    1
    RHS1      c_8_89    1
    RHS1      c_9_11    1
    RHS1      c_9_13    1
    RHS1      c_9_15    1
    RHS1      c_9_17    1
    RHS1      c_9_19    1
    RHS1      c_9_21    1
    RHS1      c_9_22    1
    RHS1      c_9_23    1
    RHS1      c_9_25    1
    RHS1      c_9_27    1
    RHS1      c_9_30    1
    RHS1      c_9_31    1
    RHS1      c_9_32    1
    RHS1      c_9_33    1
    RHS1      c_9_34    1
    RHS1      c_9_35    1
    RHS1      c_9_38    1
    RHS1      c_9_40    1
    RHS1      c_9_41    1
    RHS1      c_9_42    1
    RHS1      c_9_44    1
    RHS1      c_9_48    1
    RHS1      c_9_49    1
    RHS1      c_9_52    1
    RHS1      c_9_54    1
    RHS1      c_9_55    1
    RHS1      c_9_58    1
    RHS1      c_9_60    1
    RHS1      c_9_63    1
    RHS1      c_9_65    1
    RHS1      c_9_67    1
    RHS1      c_9_69    1
    RHS1      c_9_75    1
    RHS1      c_9_76    1
    RHS1      c_9_78    1
    RHS1      c_9_79    1
    RHS1      c_9_80    1
    RHS1      c_9_84    1
    RHS1      c_9_86    1
    RHS1      c_9_88    1
    RHS1      c_9_89    1
    RHS1      c_9_90    1
    RHS1      c_9_91    1
    RHS1      c_9_92    1
    RHS1      c_9_94    1
    RHS1      c_9_95    1
    RHS1      c_9_97    1
    RHS1      c_9_99    1
    RHS1      c_10_13   1
    RHS1      c_10_18   1
    RHS1      c_10_19   1
    RHS1      c_10_21   1
    RHS1      c_10_24   1
    RHS1      c_10_26   1
    RHS1      c_10_29   1
    RHS1      c_10_34   1
    RHS1      c_10_35   1
    RHS1      c_10_37   1
    RHS1      c_10_40   1
    RHS1      c_10_43   1
    RHS1      c_10_44   1
    RHS1      c_10_45   1
    RHS1      c_10_46   1
    RHS1      c_10_49   1
    RHS1      c_10_50   1
    RHS1      c_10_51   1
    RHS1      c_10_53   1
    RHS1      c_10_62   1
    RHS1      c_10_63   1
    RHS1      c_10_64   1
    RHS1      c_10_68   1
    RHS1      c_10_70   1
    RHS1      c_10_71   1
    RHS1      c_10_78   1
    RHS1      c_10_79   1
    RHS1      c_10_86   1
    RHS1      c_10_87   1
    RHS1      c_10_88   1
    RHS1      c_10_90   1
    RHS1      c_11_16   1
    RHS1      c_11_17   1
    RHS1      c_11_18   1
    RHS1      c_11_19   1
    RHS1      c_11_20   1
    RHS1      c_11_21   1
    RHS1      c_11_26   1
    RHS1      c_11_28   1
    RHS1      c_11_29   1
    RHS1      c_11_31   1
    RHS1      c_11_34   1
    RHS1      c_11_36   1
    RHS1      c_11_38   1
    RHS1      c_11_39   1
    RHS1      c_11_40   1
    RHS1      c_11_41   1
    RHS1      c_11_42   1
    RHS1      c_11_44   1
    RHS1      c_11_45   1
    RHS1      c_11_48   1
    RHS1      c_11_49   1
    RHS1      c_11_50   1
    RHS1      c_11_51   1
    RHS1      c_11_54   1
    RHS1      c_11_56   1
    RHS1      c_11_57   1
    RHS1      c_11_58   1
    RHS1      c_11_60   1
    RHS1      c_11_61   1
    RHS1      c_11_62   1
    RHS1      c_11_63   1
    RHS1      c_11_64   1
    RHS1      c_11_65   1
    RHS1      c_11_67   1
    RHS1      c_11_69   1
    RHS1      c_11_71   1
    RHS1      c_11_74   1
    RHS1      c_11_75   1
    RHS1      c_11_77   1
    RHS1      c_11_78   1
    RHS1      c_11_79   1
    RHS1      c_11_81   1
    RHS1      c_11_83   1
    RHS1      c_11_84   1
    RHS1      c_11_86   1
    RHS1      c_11_89   1
    RHS1      c_11_90   1
    RHS1      c_11_92   1
    RHS1      c_11_94   1
    RHS1      c_11_95   1
    RHS1      c_11_98   1
    RHS1      c_11_99   1
    RHS1      c_12_13   1
    RHS1      c_12_14   1
    RHS1      c_12_15   1
    RHS1      c_12_18   1
    RHS1      c_12_19   1
    RHS1      c_12_21   1
    RHS1      c_12_23   1
    RHS1      c_12_25   1
    RHS1      c_12_33   1
    RHS1      c_12_34   1
    RHS1      c_12_35   1
    RHS1      c_12_39   1
    RHS1      c_12_40   1
    RHS1      c_12_42   1
    RHS1      c_12_45   1
    RHS1      c_12_51   1
    RHS1      c_12_53   1
    RHS1      c_12_54   1
    RHS1      c_12_57   1
    RHS1      c_12_60   1
    RHS1      c_12_62   1
    RHS1      c_12_63   1
    RHS1      c_12_67   1
    RHS1      c_12_71   1
    RHS1      c_12_77   1
    RHS1      c_12_84   1
    RHS1      c_12_85   1
    RHS1      c_12_87   1
    RHS1      c_12_89   1
    RHS1      c_12_93   1
    RHS1      c_12_95   1
    RHS1      c_12_97   1
    RHS1      c_13_18   1
    RHS1      c_13_19   1
    RHS1      c_13_24   1
    RHS1      c_13_26   1
    RHS1      c_13_27   1
    RHS1      c_13_30   1
    RHS1      c_13_31   1
    RHS1      c_13_32   1
    RHS1      c_13_34   1
    RHS1      c_13_35   1
    RHS1      c_13_42   1
    RHS1      c_13_43   1
    RHS1      c_13_44   1
    RHS1      c_13_49   1
    RHS1      c_13_53   1
    RHS1      c_13_54   1
    RHS1      c_13_62   1
    RHS1      c_13_64   1
    RHS1      c_13_75   1
    RHS1      c_13_77   1
    RHS1      c_13_78   1
    RHS1      c_13_80   1
    RHS1      c_13_88   1
    RHS1      c_13_89   1
    RHS1      c_13_91   1
    RHS1      c_13_92   1
    RHS1      c_13_95   1
    RHS1      c_13_99   1
    RHS1      c_14_15   1
    RHS1      c_14_17   1
    RHS1      c_14_18   1
    RHS1      c_14_19   1
    RHS1      c_14_20   1
    RHS1      c_14_22   1
    RHS1      c_14_24   1
    RHS1      c_14_25   1
    RHS1      c_14_26   1
    RHS1      c_14_33   1
    RHS1      c_14_35   1
    RHS1      c_14_39   1
    RHS1      c_14_40   1
    RHS1      c_14_45   1
    RHS1      c_14_47   1
    RHS1      c_14_48   1
    RHS1      c_14_60   1
    RHS1      c_14_62   1
    RHS1      c_14_66   1
    RHS1      c_14_67   1
    RHS1      c_14_69   1
    RHS1      c_14_70   1
    RHS1      c_14_74   1
    RHS1      c_14_77   1
    RHS1      c_14_87   1
    RHS1      c_14_91   1
    RHS1      c_14_92   1
    RHS1      c_14_96   1
    RHS1      c_14_97   1
    RHS1      c_14_98   1
    RHS1      c_15_17   1
    RHS1      c_15_18   1
    RHS1      c_15_19   1
    RHS1      c_15_20   1
    RHS1      c_15_22   1
    RHS1      c_15_23   1
    RHS1      c_15_25   1
    RHS1      c_15_26   1
    RHS1      c_15_27   1
    RHS1      c_15_28   1
    RHS1      c_15_29   1
    RHS1      c_15_31   1
    RHS1      c_15_34   1
    RHS1      c_15_35   1
    RHS1      c_15_36   1
    RHS1      c_15_38   1
    RHS1      c_15_39   1
    RHS1      c_15_40   1
    RHS1      c_15_42   1
    RHS1      c_15_43   1
    RHS1      c_15_45   1
    RHS1      c_15_46   1
    RHS1      c_15_50   1
    RHS1      c_15_52   1
    RHS1      c_15_54   1
    RHS1      c_15_60   1
    RHS1      c_15_61   1
    RHS1      c_15_62   1
    RHS1      c_15_63   1
    RHS1      c_15_64   1
    RHS1      c_15_66   1
    RHS1      c_15_67   1
    RHS1      c_15_70   1
    RHS1      c_15_73   1
    RHS1      c_15_77   1
    RHS1      c_15_78   1
    RHS1      c_15_79   1
    RHS1      c_15_81   1
    RHS1      c_15_83   1
    RHS1      c_15_84   1
    RHS1      c_15_85   1
    RHS1      c_15_86   1
    RHS1      c_15_87   1
    RHS1      c_15_88   1
    RHS1      c_15_89   1
    RHS1      c_15_91   1
    RHS1      c_15_92   1
    RHS1      c_15_94   1
    RHS1      c_15_95   1
    RHS1      c_15_97   1
    RHS1      c_15_99   1
    RHS1      c_16_18   1
    RHS1      c_16_19   1
    RHS1      c_16_20   1
    RHS1      c_16_21   1
    RHS1      c_16_25   1
    RHS1      c_16_26   1
    RHS1      c_16_29   1
    RHS1      c_16_30   1
    RHS1      c_16_32   1
    RHS1      c_16_34   1
    RHS1      c_16_36   1
    RHS1      c_16_38   1
    RHS1      c_16_39   1
    RHS1      c_16_41   1
    RHS1      c_16_45   1
    RHS1      c_16_47   1
    RHS1      c_16_48   1
    RHS1      c_16_50   1
    RHS1      c_16_52   1
    RHS1      c_16_54   1
    RHS1      c_16_56   1
    RHS1      c_16_66   1
    RHS1      c_16_70   1
    RHS1      c_16_71   1
    RHS1      c_16_74   1
    RHS1      c_16_77   1
    RHS1      c_16_84   1
    RHS1      c_16_85   1
    RHS1      c_16_86   1
    RHS1      c_16_87   1
    RHS1      c_16_89   1
    RHS1      c_16_92   1
    RHS1      c_16_93   1
    RHS1      c_16_98   1
    RHS1      c_17_19   1
    RHS1      c_17_20   1
    RHS1      c_17_22   1
    RHS1      c_17_25   1
    RHS1      c_17_29   1
    RHS1      c_17_31   1
    RHS1      c_17_36   1
    RHS1      c_17_38   1
    RHS1      c_17_44   1
    RHS1      c_17_48   1
    RHS1      c_17_54   1
    RHS1      c_17_60   1
    RHS1      c_17_64   1
    RHS1      c_17_66   1
    RHS1      c_17_67   1
    RHS1      c_17_69   1
    RHS1      c_17_70   1
    RHS1      c_17_73   1
    RHS1      c_17_74   1
    RHS1      c_17_77   1
    RHS1      c_17_81   1
    RHS1      c_17_83   1
    RHS1      c_17_84   1
    RHS1      c_17_85   1
    RHS1      c_17_86   1
    RHS1      c_17_87   1
    RHS1      c_17_90   1
    RHS1      c_17_92   1
    RHS1      c_17_94   1
    RHS1      c_17_99   1
    RHS1      c_18_21   1
    RHS1      c_18_26   1
    RHS1      c_18_29   1
    RHS1      c_18_30   1
    RHS1      c_18_34   1
    RHS1      c_18_35   1
    RHS1      c_18_38   1
    RHS1      c_18_39   1
    RHS1      c_18_40   1
    RHS1      c_18_41   1
    RHS1      c_18_44   1
    RHS1      c_18_45   1
    RHS1      c_18_48   1
    RHS1      c_18_50   1
    RHS1      c_18_51   1
    RHS1      c_18_52   1
    RHS1      c_18_54   1
    RHS1      c_18_55   1
    RHS1      c_18_56   1
    RHS1      c_18_57   1
    RHS1      c_18_60   1
    RHS1      c_18_62   1
    RHS1      c_18_63   1
    RHS1      c_18_64   1
    RHS1      c_18_65   1
    RHS1      c_18_68   1
    RHS1      c_18_70   1
    RHS1      c_18_71   1
    RHS1      c_18_74   1
    RHS1      c_18_78   1
    RHS1      c_18_81   1
    RHS1      c_18_84   1
    RHS1      c_18_87   1
    RHS1      c_18_92   1
    RHS1      c_18_94   1
    RHS1      c_18_97   1
    RHS1      c_18_98   1
    RHS1      c_19_20   1
    RHS1      c_19_21   1
    RHS1      c_19_24   1
    RHS1      c_19_25   1
    RHS1      c_19_26   1
    RHS1      c_19_29   1
    RHS1      c_19_31   1
    RHS1      c_19_34   1
    RHS1      c_19_35   1
    RHS1      c_19_38   1
    RHS1      c_19_39   1
    RHS1      c_19_41   1
    RHS1      c_19_42   1
    RHS1      c_19_43   1
    RHS1      c_19_44   1
    RHS1      c_19_47   1
    RHS1      c_19_48   1
    RHS1      c_19_49   1
    RHS1      c_19_52   1
    RHS1      c_19_53   1
    RHS1      c_19_54   1
    RHS1      c_19_58   1
    RHS1      c_19_60   1
    RHS1      c_19_61   1
    RHS1      c_19_63   1
    RHS1      c_19_64   1
    RHS1      c_19_68   1
    RHS1      c_19_69   1
    RHS1      c_19_70   1
    RHS1      c_19_74   1
    RHS1      c_19_77   1
    RHS1      c_19_78   1
    RHS1      c_19_79   1
    RHS1      c_19_84   1
    RHS1      c_19_85   1
    RHS1      c_19_86   1
    RHS1      c_19_88   1
    RHS1      c_19_89   1
    RHS1      c_19_95   1
    RHS1      c_19_96   1
    RHS1      c_19_98   1
    RHS1      c_19_99   1
    RHS1      c_20_22   1
    RHS1      c_20_23   1
    RHS1      c_20_25   1
    RHS1      c_20_26   1
    RHS1      c_20_28   1
    RHS1      c_20_29   1
    RHS1      c_20_30   1
    RHS1      c_20_31   1
    RHS1      c_20_32   1
    RHS1      c_20_36   1
    RHS1      c_20_38   1
    RHS1      c_20_42   1
    RHS1      c_20_43   1
    RHS1      c_20_49   1
    RHS1      c_20_50   1
    RHS1      c_20_54   1
    RHS1      c_20_56   1
    RHS1      c_20_58   1
    RHS1      c_20_60   1
    RHS1      c_20_61   1
    RHS1      c_20_62   1
    RHS1      c_20_63   1
    RHS1      c_20_64   1
    RHS1      c_20_65   1
    RHS1      c_20_66   1
    RHS1      c_20_67   1
    RHS1      c_20_69   1
    RHS1      c_20_70   1
    RHS1      c_20_71   1
    RHS1      c_20_73   1
    RHS1      c_20_74   1
    RHS1      c_20_75   1
    RHS1      c_20_77   1
    RHS1      c_20_81   1
    RHS1      c_20_83   1
    RHS1      c_20_84   1
    RHS1      c_20_85   1
    RHS1      c_20_87   1
    RHS1      c_20_89   1
    RHS1      c_20_92   1
    RHS1      c_20_93   1
    RHS1      c_20_94   1
    RHS1      c_20_99   1
    RHS1      c_21_22   1
    RHS1      c_21_23   1
    RHS1      c_21_24   1
    RHS1      c_21_25   1
    RHS1      c_21_26   1
    RHS1      c_21_27   1
    RHS1      c_21_28   1
    RHS1      c_21_29   1
    RHS1      c_21_30   1
    RHS1      c_21_32   1
    RHS1      c_21_33   1
    RHS1      c_21_34   1
    RHS1      c_21_38   1
    RHS1      c_21_39   1
    RHS1      c_21_40   1
    RHS1      c_21_41   1
    RHS1      c_21_44   1
    RHS1      c_21_45   1
    RHS1      c_21_47   1
    RHS1      c_21_48   1
    RHS1      c_21_49   1
    RHS1      c_21_50   1
    RHS1      c_21_51   1
    RHS1      c_21_52   1
    RHS1      c_21_54   1
    RHS1      c_21_57   1
    RHS1      c_21_58   1
    RHS1      c_21_60   1
    RHS1      c_21_62   1
    RHS1      c_21_63   1
    RHS1      c_21_65   1
    RHS1      c_21_67   1
    RHS1      c_21_68   1
    RHS1      c_21_69   1
    RHS1      c_21_70   1
    RHS1      c_21_73   1
    RHS1      c_21_74   1
    RHS1      c_21_75   1
    RHS1      c_21_77   1
    RHS1      c_21_79   1
    RHS1      c_21_80   1
    RHS1      c_21_83   1
    RHS1      c_21_84   1
    RHS1      c_21_85   1
    RHS1      c_21_86   1
    RHS1      c_21_91   1
    RHS1      c_21_92   1
    RHS1      c_21_95   1
    RHS1      c_21_96   1
    RHS1      c_21_97   1
    RHS1      c_21_98   1
    RHS1      c_22_25   1
    RHS1      c_22_30   1
    RHS1      c_22_41   1
    RHS1      c_22_44   1
    RHS1      c_22_47   1
    RHS1      c_22_48   1
    RHS1      c_22_50   1
    RHS1      c_22_54   1
    RHS1      c_22_57   1
    RHS1      c_22_58   1
    RHS1      c_22_60   1
    RHS1      c_22_61   1
    RHS1      c_22_66   1
    RHS1      c_22_67   1
    RHS1      c_22_70   1
    RHS1      c_22_74   1
    RHS1      c_22_75   1
    RHS1      c_22_77   1
    RHS1      c_22_79   1
    RHS1      c_22_84   1
    RHS1      c_22_85   1
    RHS1      c_22_86   1
    RHS1      c_22_87   1
    RHS1      c_22_90   1
    RHS1      c_22_91   1
    RHS1      c_22_92   1
    RHS1      c_22_95   1
    RHS1      c_22_99   1
    RHS1      c_23_25   1
    RHS1      c_23_26   1
    RHS1      c_23_27   1
    RHS1      c_23_28   1
    RHS1      c_23_29   1
    RHS1      c_23_31   1
    RHS1      c_23_32   1
    RHS1      c_23_33   1
    RHS1      c_23_38   1
    RHS1      c_23_42   1
    RHS1      c_23_43   1
    RHS1      c_23_44   1
    RHS1      c_23_47   1
    RHS1      c_23_49   1
    RHS1      c_23_51   1
    RHS1      c_23_54   1
    RHS1      c_23_57   1
    RHS1      c_23_60   1
    RHS1      c_23_62   1
    RHS1      c_23_63   1
    RHS1      c_23_64   1
    RHS1      c_23_67   1
    RHS1      c_23_71   1
    RHS1      c_23_76   1
    RHS1      c_23_77   1
    RHS1      c_23_79   1
    RHS1      c_23_80   1
    RHS1      c_23_83   1
    RHS1      c_23_84   1
    RHS1      c_23_85   1
    RHS1      c_23_86   1
    RHS1      c_23_89   1
    RHS1      c_23_92   1
    RHS1      c_23_93   1
    RHS1      c_23_94   1
    RHS1      c_23_95   1
    RHS1      c_23_96   1
    RHS1      c_23_97   1
    RHS1      c_23_99   1
    RHS1      c_24_29   1
    RHS1      c_24_30   1
    RHS1      c_24_32   1
    RHS1      c_24_33   1
    RHS1      c_24_35   1
    RHS1      c_24_43   1
    RHS1      c_24_44   1
    RHS1      c_24_45   1
    RHS1      c_24_46   1
    RHS1      c_24_48   1
    RHS1      c_24_49   1
    RHS1      c_24_53   1
    RHS1      c_24_54   1
    RHS1      c_24_56   1
    RHS1      c_24_62   1
    RHS1      c_24_63   1
    RHS1      c_24_65   1
    RHS1      c_24_68   1
    RHS1      c_24_69   1
    RHS1      c_24_70   1
    RHS1      c_24_71   1
    RHS1      c_24_76   1
    RHS1      c_24_78   1
    RHS1      c_24_84   1
    RHS1      c_24_86   1
    RHS1      c_24_88   1
    RHS1      c_24_90   1
    RHS1      c_24_91   1
    RHS1      c_24_97   1
    RHS1      c_25_27   1
    RHS1      c_25_30   1
    RHS1      c_25_32   1
    RHS1      c_25_33   1
    RHS1      c_25_34   1
    RHS1      c_25_35   1
    RHS1      c_25_42   1
    RHS1      c_25_48   1
    RHS1      c_25_50   1
    RHS1      c_25_53   1
    RHS1      c_25_54   1
    RHS1      c_25_57   1
    RHS1      c_25_60   1
    RHS1      c_25_63   1
    RHS1      c_25_66   1
    RHS1      c_25_67   1
    RHS1      c_25_70   1
    RHS1      c_25_71   1
    RHS1      c_25_73   1
    RHS1      c_25_77   1
    RHS1      c_25_79   1
    RHS1      c_25_84   1
    RHS1      c_25_86   1
    RHS1      c_25_87   1
    RHS1      c_25_88   1
    RHS1      c_25_89   1
    RHS1      c_25_92   1
    RHS1      c_26_28   1
    RHS1      c_26_29   1
    RHS1      c_26_38   1
    RHS1      c_26_39   1
    RHS1      c_26_41   1
    RHS1      c_26_43   1
    RHS1      c_26_45   1
    RHS1      c_26_47   1
    RHS1      c_26_48   1
    RHS1      c_26_52   1
    RHS1      c_26_54   1
    RHS1      c_26_57   1
    RHS1      c_26_60   1
    RHS1      c_26_62   1
    RHS1      c_26_64   1
    RHS1      c_26_70   1
    RHS1      c_26_74   1
    RHS1      c_26_78   1
    RHS1      c_26_83   1
    RHS1      c_26_84   1
    RHS1      c_26_85   1
    RHS1      c_26_89   1
    RHS1      c_26_92   1
    RHS1      c_26_96   1
    RHS1      c_26_98   1
    RHS1      c_26_99   1
    RHS1      c_27_29   1
    RHS1      c_27_30   1
    RHS1      c_27_31   1
    RHS1      c_27_32   1
    RHS1      c_27_34   1
    RHS1      c_27_35   1
    RHS1      c_27_42   1
    RHS1      c_27_44   1
    RHS1      c_27_48   1
    RHS1      c_27_57   1
    RHS1      c_27_61   1
    RHS1      c_27_73   1
    RHS1      c_27_75   1
    RHS1      c_27_77   1
    RHS1      c_27_78   1
    RHS1      c_27_80   1
    RHS1      c_27_84   1
    RHS1      c_27_86   1
    RHS1      c_27_87   1
    RHS1      c_27_89   1
    RHS1      c_27_91   1
    RHS1      c_27_92   1
    RHS1      c_27_95   1
    RHS1      c_27_99   1
    RHS1      c_28_29   1
    RHS1      c_28_32   1
    RHS1      c_28_38   1
    RHS1      c_28_43   1
    RHS1      c_28_44   1
    RHS1      c_28_45   1
    RHS1      c_28_47   1
    RHS1      c_28_57   1
    RHS1      c_28_60   1
    RHS1      c_28_62   1
    RHS1      c_28_64   1
    RHS1      c_28_74   1
    RHS1      c_28_78   1
    RHS1      c_28_79   1
    RHS1      c_28_80   1
    RHS1      c_28_83   1
    RHS1      c_28_85   1
    RHS1      c_28_89   1
    RHS1      c_28_92   1
    RHS1      c_28_96   1
    RHS1      c_28_99   1
    RHS1      c_29_30   1
    RHS1      c_29_31   1
    RHS1      c_29_32   1
    RHS1      c_29_34   1
    RHS1      c_29_35   1
    RHS1      c_29_37   1
    RHS1      c_29_38   1
    RHS1      c_29_40   1
    RHS1      c_29_43   1
    RHS1      c_29_44   1
    RHS1      c_29_45   1
    RHS1      c_29_47   1
    RHS1      c_29_48   1
    RHS1      c_29_49   1
    RHS1      c_29_50   1
    RHS1      c_29_51   1
    RHS1      c_29_54   1
    RHS1      c_29_56   1
    RHS1      c_29_57   1
    RHS1      c_29_61   1
    RHS1      c_29_62   1
    RHS1      c_29_63   1
    RHS1      c_29_64   1
    RHS1      c_29_69   1
    RHS1      c_29_70   1
    RHS1      c_29_74   1
    RHS1      c_29_76   1
    RHS1      c_29_78   1
    RHS1      c_29_79   1
    RHS1      c_29_80   1
    RHS1      c_29_83   1
    RHS1      c_29_84   1
    RHS1      c_29_86   1
    RHS1      c_29_87   1
    RHS1      c_29_89   1
    RHS1      c_29_90   1
    RHS1      c_29_92   1
    RHS1      c_29_96   1
    RHS1      c_29_98   1
    RHS1      c_29_99   1
    RHS1      c_30_31   1
    RHS1      c_30_32   1
    RHS1      c_30_33   1
    RHS1      c_30_35   1
    RHS1      c_30_36   1
    RHS1      c_30_38   1
    RHS1      c_30_41   1
    RHS1      c_30_42   1
    RHS1      c_30_44   1
    RHS1      c_30_47   1
    RHS1      c_30_49   1
    RHS1      c_30_50   1
    RHS1      c_30_51   1
    RHS1      c_30_52   1
    RHS1      c_30_54   1
    RHS1      c_30_56   1
    RHS1      c_30_57   1
    RHS1      c_30_60   1
    RHS1      c_30_61   1
    RHS1      c_30_62   1
    RHS1      c_30_63   1
    RHS1      c_30_68   1
    RHS1      c_30_69   1
    RHS1      c_30_70   1
    RHS1      c_30_71   1
    RHS1      c_30_75   1
    RHS1      c_30_76   1
    RHS1      c_30_77   1
    RHS1      c_30_78   1
    RHS1      c_30_79   1
    RHS1      c_30_80   1
    RHS1      c_30_84   1
    RHS1      c_30_86   1
    RHS1      c_30_87   1
    RHS1      c_30_89   1
    RHS1      c_30_90   1
    RHS1      c_30_91   1
    RHS1      c_30_92   1
    RHS1      c_30_93   1
    RHS1      c_30_95   1
    RHS1      c_30_99   1
    RHS1      c_31_32   1
    RHS1      c_31_35   1
    RHS1      c_31_36   1
    RHS1      c_31_38   1
    RHS1      c_31_39   1
    RHS1      c_31_42   1
    RHS1      c_31_44   1
    RHS1      c_31_49   1
    RHS1      c_31_53   1
    RHS1      c_31_54   1
    RHS1      c_31_55   1
    RHS1      c_31_57   1
    RHS1      c_31_58   1
    RHS1      c_31_61   1
    RHS1      c_31_64   1
    RHS1      c_31_67   1
    RHS1      c_31_69   1
    RHS1      c_31_73   1
    RHS1      c_31_74   1
    RHS1      c_31_75   1
    RHS1      c_31_77   1
    RHS1      c_31_78   1
    RHS1      c_31_79   1
    RHS1      c_31_80   1
    RHS1      c_31_81   1
    RHS1      c_31_83   1
    RHS1      c_31_84   1
    RHS1      c_31_85   1
    RHS1      c_31_86   1
    RHS1      c_31_89   1
    RHS1      c_31_91   1
    RHS1      c_31_92   1
    RHS1      c_31_94   1
    RHS1      c_31_95   1
    RHS1      c_31_99   1
    RHS1      c_32_35   1
    RHS1      c_32_42   1
    RHS1      c_32_44   1
    RHS1      c_32_47   1
    RHS1      c_32_50   1
    RHS1      c_32_54   1
    RHS1      c_32_56   1
    RHS1      c_32_62   1
    RHS1      c_32_63   1
    RHS1      c_32_69   1
    RHS1      c_32_71   1
    RHS1      c_32_75   1
    RHS1      c_32_76   1
    RHS1      c_32_77   1
    RHS1      c_32_78   1
    RHS1      c_32_79   1
    RHS1      c_32_80   1
    RHS1      c_32_83   1
    RHS1      c_32_84   1
    RHS1      c_32_86   1
    RHS1      c_32_87   1
    RHS1      c_32_89   1
    RHS1      c_32_91   1
    RHS1      c_32_92   1
    RHS1      c_32_93   1
    RHS1      c_32_95   1
    RHS1      c_32_96   1
    RHS1      c_32_99   1
    RHS1      c_33_35   1
    RHS1      c_33_36   1
    RHS1      c_33_37   1
    RHS1      c_33_38   1
    RHS1      c_33_42   1
    RHS1      c_33_49   1
    RHS1      c_33_52   1
    RHS1      c_33_60   1
    RHS1      c_33_62   1
    RHS1      c_33_66   1
    RHS1      c_33_68   1
    RHS1      c_33_69   1
    RHS1      c_33_70   1
    RHS1      c_33_71   1
    RHS1      c_33_76   1
    RHS1      c_33_77   1
    RHS1      c_33_79   1
    RHS1      c_33_80   1
    RHS1      c_33_87   1
    RHS1      c_33_88   1
    RHS1      c_33_89   1
    RHS1      c_33_91   1
    RHS1      c_33_93   1
    RHS1      c_33_94   1
    RHS1      c_33_96   1
    RHS1      c_33_97   1
    RHS1      c_33_99   1
    RHS1      c_34_35   1
    RHS1      c_34_37   1
    RHS1      c_34_38   1
    RHS1      c_34_40   1
    RHS1      c_34_42   1
    RHS1      c_34_43   1
    RHS1      c_34_44   1
    RHS1      c_34_45   1
    RHS1      c_34_48   1
    RHS1      c_34_49   1
    RHS1      c_34_50   1
    RHS1      c_34_52   1
    RHS1      c_34_53   1
    RHS1      c_34_54   1
    RHS1      c_34_57   1
    RHS1      c_34_63   1
    RHS1      c_34_64   1
    RHS1      c_34_70   1
    RHS1      c_34_73   1
    RHS1      c_34_77   1
    RHS1      c_34_78   1
    RHS1      c_34_79   1
    RHS1      c_34_84   1
    RHS1      c_34_86   1
    RHS1      c_34_87   1
    RHS1      c_34_89   1
    RHS1      c_34_90   1
    RHS1      c_34_92   1
    RHS1      c_34_98   1
    RHS1      c_35_36   1
    RHS1      c_35_37   1
    RHS1      c_35_39   1
    RHS1      c_35_40   1
    RHS1      c_35_42   1
    RHS1      c_35_43   1
    RHS1      c_35_44   1
    RHS1      c_35_45   1
    RHS1      c_35_49   1
    RHS1      c_35_50   1
    RHS1      c_35_51   1
    RHS1      c_35_60   1
    RHS1      c_35_62   1
    RHS1      c_35_64   1
    RHS1      c_35_69   1
    RHS1      c_35_70   1
    RHS1      c_35_75   1
    RHS1      c_35_78   1
    RHS1      c_35_79   1
    RHS1      c_35_80   1
    RHS1      c_35_86   1
    RHS1      c_35_87   1
    RHS1      c_35_88   1
    RHS1      c_35_89   1
    RHS1      c_35_90   1
    RHS1      c_35_91   1
    RHS1      c_35_92   1
    RHS1      c_35_95   1
    RHS1      c_35_97   1
    RHS1      c_35_99   1
    RHS1      c_36_37   1
    RHS1      c_36_42   1
    RHS1      c_36_47   1
    RHS1      c_36_49   1
    RHS1      c_36_51   1
    RHS1      c_36_54   1
    RHS1      c_36_56   1
    RHS1      c_36_61   1
    RHS1      c_36_63   1
    RHS1      c_36_65   1
    RHS1      c_36_66   1
    RHS1      c_36_73   1
    RHS1      c_36_75   1
    RHS1      c_36_77   1
    RHS1      c_36_81   1
    RHS1      c_36_83   1
    RHS1      c_36_85   1
    RHS1      c_36_86   1
    RHS1      c_36_89   1
    RHS1      c_36_90   1
    RHS1      c_36_92   1
    RHS1      c_36_94   1
    RHS1      c_36_96   1
    RHS1      c_36_99   1
    RHS1      c_37_40   1
    RHS1      c_37_43   1
    RHS1      c_37_44   1
    RHS1      c_37_50   1
    RHS1      c_37_64   1
    RHS1      c_37_70   1
    RHS1      c_37_77   1
    RHS1      c_37_86   1
    RHS1      c_37_87   1
    RHS1      c_37_89   1
    RHS1      c_37_90   1
    RHS1      c_37_96   1
    RHS1      c_38_41   1
    RHS1      c_38_43   1
    RHS1      c_38_45   1
    RHS1      c_38_48   1
    RHS1      c_38_49   1
    RHS1      c_38_50   1
    RHS1      c_38_52   1
    RHS1      c_38_54   1
    RHS1      c_38_55   1
    RHS1      c_38_58   1
    RHS1      c_38_60   1
    RHS1      c_38_62   1
    RHS1      c_38_64   1
    RHS1      c_38_69   1
    RHS1      c_38_74   1
    RHS1      c_38_79   1
    RHS1      c_38_84   1
    RHS1      c_38_85   1
    RHS1      c_38_89   1
    RHS1      c_38_90   1
    RHS1      c_38_92   1
    RHS1      c_38_98   1
    RHS1      c_38_99   1
    RHS1      c_39_40   1
    RHS1      c_39_41   1
    RHS1      c_39_44   1
    RHS1      c_39_45   1
    RHS1      c_39_49   1
    RHS1      c_39_52   1
    RHS1      c_39_53   1
    RHS1      c_39_54   1
    RHS1      c_39_57   1
    RHS1      c_39_60   1
    RHS1      c_39_61   1
    RHS1      c_39_67   1
    RHS1      c_39_69   1
    RHS1      c_39_70   1
    RHS1      c_39_73   1
    RHS1      c_39_74   1
    RHS1      c_39_84   1
    RHS1      c_39_85   1
    RHS1      c_39_86   1
    RHS1      c_39_87   1
    RHS1      c_39_95   1
    RHS1      c_39_97   1
    RHS1      c_40_43   1
    RHS1      c_40_44   1
    RHS1      c_40_45   1
    RHS1      c_40_49   1
    RHS1      c_40_50   1
    RHS1      c_40_51   1
    RHS1      c_40_60   1
    RHS1      c_40_64   1
    RHS1      c_40_65   1
    RHS1      c_40_67   1
    RHS1      c_40_69   1
    RHS1      c_40_70   1
    RHS1      c_40_75   1
    RHS1      c_40_79   1
    RHS1      c_40_86   1
    RHS1      c_40_87   1
    RHS1      c_40_90   1
    RHS1      c_40_97   1
    RHS1      c_41_44   1
    RHS1      c_41_47   1
    RHS1      c_41_50   1
    RHS1      c_41_51   1
    RHS1      c_41_52   1
    RHS1      c_41_54   1
    RHS1      c_41_55   1
    RHS1      c_41_56   1
    RHS1      c_41_57   1
    RHS1      c_41_58   1
    RHS1      c_41_60   1
    RHS1      c_41_61   1
    RHS1      c_41_62   1
    RHS1      c_41_63   1
    RHS1      c_41_65   1
    RHS1      c_41_68   1
    RHS1      c_41_70   1
    RHS1      c_41_71   1
    RHS1      c_41_74   1
    RHS1      c_41_75   1
    RHS1      c_41_77   1
    RHS1      c_41_78   1
    RHS1      c_41_79   1
    RHS1      c_41_81   1
    RHS1      c_41_84   1
    RHS1      c_41_85   1
    RHS1      c_41_87   1
    RHS1      c_41_90   1
    RHS1      c_41_91   1
    RHS1      c_41_92   1
    RHS1      c_41_94   1
    RHS1      c_41_95   1
    RHS1      c_41_98   1
    RHS1      c_42_44   1
    RHS1      c_42_49   1
    RHS1      c_42_52   1
    RHS1      c_42_53   1
    RHS1      c_42_54   1
    RHS1      c_42_56   1
    RHS1      c_42_58   1
    RHS1      c_42_60   1
    RHS1      c_42_61   1
    RHS1      c_42_63   1
    RHS1      c_42_65   1
    RHS1      c_42_66   1
    RHS1      c_42_68   1
    RHS1      c_42_70   1
    RHS1      c_42_71   1
    RHS1      c_42_75   1
    RHS1      c_42_77   1
    RHS1      c_42_78   1
    RHS1      c_42_79   1
    RHS1      c_42_80   1
    RHS1      c_42_83   1
    RHS1      c_42_87   1
    RHS1      c_42_88   1
    RHS1      c_42_89   1
    RHS1      c_42_91   1
    RHS1      c_42_92   1
    RHS1      c_42_93   1
    RHS1      c_42_94   1
    RHS1      c_42_95   1
    RHS1      c_42_99   1
    RHS1      c_43_44   1
    RHS1      c_43_46   1
    RHS1      c_43_49   1
    RHS1      c_43_50   1
    RHS1      c_43_60   1
    RHS1      c_43_62   1
    RHS1      c_43_64   1
    RHS1      c_43_67   1
    RHS1      c_43_70   1
    RHS1      c_43_78   1
    RHS1      c_43_84   1
    RHS1      c_43_85   1
    RHS1      c_43_86   1
    RHS1      c_43_87   1
    RHS1      c_43_88   1
    RHS1      c_43_89   1
    RHS1      c_43_90   1
    RHS1      c_43_91   1
    RHS1      c_43_92   1
    RHS1      c_43_95   1
    RHS1      c_43_99   1
    RHS1      c_44_47   1
    RHS1      c_44_48   1
    RHS1      c_44_49   1
    RHS1      c_44_50   1
    RHS1      c_44_51   1
    RHS1      c_44_54   1
    RHS1      c_44_55   1
    RHS1      c_44_56   1
    RHS1      c_44_60   1
    RHS1      c_44_62   1
    RHS1      c_44_63   1
    RHS1      c_44_64   1
    RHS1      c_44_65   1
    RHS1      c_44_69   1
    RHS1      c_44_70   1
    RHS1      c_44_71   1
    RHS1      c_44_74   1
    RHS1      c_44_75   1
    RHS1      c_44_76   1
    RHS1      c_44_78   1
    RHS1      c_44_79   1
    RHS1      c_44_80   1
    RHS1      c_44_81   1
    RHS1      c_44_83   1
    RHS1      c_44_84   1
    RHS1      c_44_86   1
    RHS1      c_44_87   1
    RHS1      c_44_89   1
    RHS1      c_44_90   1
    RHS1      c_44_91   1
    RHS1      c_44_92   1
    RHS1      c_44_94   1
    RHS1      c_44_95   1
    RHS1      c_44_96   1
    RHS1      c_44_98   1
    RHS1      c_44_99   1
    RHS1      c_45_48   1
    RHS1      c_45_50   1
    RHS1      c_45_51   1
    RHS1      c_45_54   1
    RHS1      c_45_57   1
    RHS1      c_45_60   1
    RHS1      c_45_65   1
    RHS1      c_45_68   1
    RHS1      c_45_70   1
    RHS1      c_45_74   1
    RHS1      c_45_78   1
    RHS1      c_45_79   1
    RHS1      c_45_83   1
    RHS1      c_45_84   1
    RHS1      c_45_87   1
    RHS1      c_45_89   1
    RHS1      c_45_92   1
    RHS1      c_45_97   1
    RHS1      c_45_98   1
    RHS1      c_46_50   1
    RHS1      c_46_53   1
    RHS1      c_46_63   1
    RHS1      c_46_67   1
    RHS1      c_46_68   1
    RHS1      c_46_71   1
    RHS1      c_46_84   1
    RHS1      c_46_90   1
    RHS1      c_46_91   1
    RHS1      c_46_95   1
    RHS1      c_47_48   1
    RHS1      c_47_54   1
    RHS1      c_47_56   1
    RHS1      c_47_57   1
    RHS1      c_47_61   1
    RHS1      c_47_66   1
    RHS1      c_47_74   1
    RHS1      c_47_75   1
    RHS1      c_47_79   1
    RHS1      c_47_80   1
    RHS1      c_47_83   1
    RHS1      c_47_86   1
    RHS1      c_47_87   1
    RHS1      c_47_96   1
    RHS1      c_47_98   1
    RHS1      c_48_50   1
    RHS1      c_48_54   1
    RHS1      c_48_57   1
    RHS1      c_48_60   1
    RHS1      c_48_65   1
    RHS1      c_48_68   1
    RHS1      c_48_70   1
    RHS1      c_48_73   1
    RHS1      c_48_74   1
    RHS1      c_48_84   1
    RHS1      c_48_86   1
    RHS1      c_48_90   1
    RHS1      c_48_92   1
    RHS1      c_48_96   1
    RHS1      c_48_97   1
    RHS1      c_48_98   1
    RHS1      c_48_99   1
    RHS1      c_49_50   1
    RHS1      c_49_52   1
    RHS1      c_49_53   1
    RHS1      c_49_57   1
    RHS1      c_49_58   1
    RHS1      c_49_60   1
    RHS1      c_49_61   1
    RHS1      c_49_64   1
    RHS1      c_49_65   1
    RHS1      c_49_66   1
    RHS1      c_49_67   1
    RHS1      c_49_68   1
    RHS1      c_49_69   1
    RHS1      c_49_70   1
    RHS1      c_49_73   1
    RHS1      c_49_75   1
    RHS1      c_49_76   1
    RHS1      c_49_77   1
    RHS1      c_49_78   1
    RHS1      c_49_79   1
    RHS1      c_49_80   1
    RHS1      c_49_84   1
    RHS1      c_49_86   1
    RHS1      c_49_87   1
    RHS1      c_49_88   1
    RHS1      c_49_89   1
    RHS1      c_49_90   1
    RHS1      c_49_94   1
    RHS1      c_49_96   1
    RHS1      c_49_97   1
    RHS1      c_49_99   1
    RHS1      c_50_54   1
    RHS1      c_50_58   1
    RHS1      c_50_64   1
    RHS1      c_50_67   1
    RHS1      c_50_70   1
    RHS1      c_50_71   1
    RHS1      c_50_74   1
    RHS1      c_50_77   1
    RHS1      c_50_84   1
    RHS1      c_50_85   1
    RHS1      c_50_86   1
    RHS1      c_50_87   1
    RHS1      c_50_89   1
    RHS1      c_50_90   1
    RHS1      c_50_91   1
    RHS1      c_50_92   1
    RHS1      c_50_93   1
    RHS1      c_50_95   1
    RHS1      c_50_98   1
    RHS1      c_51_54   1
    RHS1      c_51_55   1
    RHS1      c_51_62   1
    RHS1      c_51_63   1
    RHS1      c_51_65   1
    RHS1      c_51_67   1
    RHS1      c_51_71   1
    RHS1      c_51_74   1
    RHS1      c_51_77   1
    RHS1      c_51_79   1
    RHS1      c_51_81   1
    RHS1      c_51_85   1
    RHS1      c_51_90   1
    RHS1      c_51_94   1
    RHS1      c_51_95   1
    RHS1      c_51_97   1
    RHS1      c_51_98   1
    RHS1      c_52_54   1
    RHS1      c_52_56   1
    RHS1      c_52_57   1
    RHS1      c_52_60   1
    RHS1      c_52_62   1
    RHS1      c_52_63   1
    RHS1      c_52_66   1
    RHS1      c_52_68   1
    RHS1      c_52_70   1
    RHS1      c_52_74   1
    RHS1      c_52_78   1
    RHS1      c_52_79   1
    RHS1      c_52_84   1
    RHS1      c_52_85   1
    RHS1      c_52_86   1
    RHS1      c_52_87   1
    RHS1      c_52_88   1
    RHS1      c_52_89   1
    RHS1      c_52_94   1
    RHS1      c_53_54   1
    RHS1      c_53_57   1
    RHS1      c_53_61   1
    RHS1      c_53_63   1
    RHS1      c_53_67   1
    RHS1      c_53_68   1
    RHS1      c_53_69   1
    RHS1      c_53_71   1
    RHS1      c_53_73   1
    RHS1      c_53_77   1
    RHS1      c_53_79   1
    RHS1      c_53_90   1
    RHS1      c_54_57   1
    RHS1      c_54_60   1
    RHS1      c_54_61   1
    RHS1      c_54_65   1
    RHS1      c_54_67   1
    RHS1      c_54_68   1
    RHS1      c_54_70   1
    RHS1      c_54_71   1
    RHS1      c_54_73   1
    RHS1      c_54_74   1
    RHS1      c_54_75   1
    RHS1      c_54_77   1
    RHS1      c_54_79   1
    RHS1      c_54_81   1
    RHS1      c_54_83   1
    RHS1      c_54_84   1
    RHS1      c_54_85   1
    RHS1      c_54_86   1
    RHS1      c_54_87   1
    RHS1      c_54_89   1
    RHS1      c_54_90   1
    RHS1      c_54_92   1
    RHS1      c_54_93   1
    RHS1      c_54_94   1
    RHS1      c_54_95   1
    RHS1      c_54_97   1
    RHS1      c_54_98   1
    RHS1      c_54_99   1
    RHS1      c_55_58   1
    RHS1      c_55_62   1
    RHS1      c_55_63   1
    RHS1      c_55_65   1
    RHS1      c_55_67   1
    RHS1      c_55_71   1
    RHS1      c_55_74   1
    RHS1      c_55_79   1
    RHS1      c_55_81   1
    RHS1      c_55_84   1
    RHS1      c_55_90   1
    RHS1      c_55_94   1
    RHS1      c_55_98   1
    RHS1      c_56_57   1
    RHS1      c_56_60   1
    RHS1      c_56_61   1
    RHS1      c_56_62   1
    RHS1      c_56_63   1
    RHS1      c_56_65   1
    RHS1      c_56_66   1
    RHS1      c_56_68   1
    RHS1      c_56_69   1
    RHS1      c_56_70   1
    RHS1      c_56_75   1
    RHS1      c_56_76   1
    RHS1      c_56_77   1
    RHS1      c_56_78   1
    RHS1      c_56_83   1
    RHS1      c_56_84   1
    RHS1      c_56_86   1
    RHS1      c_56_92   1
    RHS1      c_57_60   1
    RHS1      c_57_61   1
    RHS1      c_57_62   1
    RHS1      c_57_63   1
    RHS1      c_57_67   1
    RHS1      c_57_68   1
    RHS1      c_57_69   1
    RHS1      c_57_70   1
    RHS1      c_57_73   1
    RHS1      c_57_74   1
    RHS1      c_57_75   1
    RHS1      c_57_78   1
    RHS1      c_57_79   1
    RHS1      c_57_83   1
    RHS1      c_57_84   1
    RHS1      c_57_86   1
    RHS1      c_57_87   1
    RHS1      c_57_89   1
    RHS1      c_58_60   1
    RHS1      c_58_61   1
    RHS1      c_58_63   1
    RHS1      c_58_67   1
    RHS1      c_58_68   1
    RHS1      c_58_69   1
    RHS1      c_58_74   1
    RHS1      c_58_77   1
    RHS1      c_58_79   1
    RHS1      c_58_84   1
    RHS1      c_58_85   1
    RHS1      c_58_90   1
    RHS1      c_58_91   1
    RHS1      c_58_92   1
    RHS1      c_58_95   1
    RHS1      c_60_61   1
    RHS1      c_60_62   1
    RHS1      c_60_63   1
    RHS1      c_60_64   1
    RHS1      c_60_65   1
    RHS1      c_60_66   1
    RHS1      c_60_67   1
    RHS1      c_60_68   1
    RHS1      c_60_69   1
    RHS1      c_60_70   1
    RHS1      c_60_75   1
    RHS1      c_60_77   1
    RHS1      c_60_78   1
    RHS1      c_60_84   1
    RHS1      c_60_85   1
    RHS1      c_60_86   1
    RHS1      c_60_87   1
    RHS1      c_60_88   1
    RHS1      c_60_89   1
    RHS1      c_60_90   1
    RHS1      c_60_92   1
    RHS1      c_60_94   1
    RHS1      c_60_97   1
    RHS1      c_60_99   1
    RHS1      c_61_63   1
    RHS1      c_61_65   1
    RHS1      c_61_67   1
    RHS1      c_61_68   1
    RHS1      c_61_69   1
    RHS1      c_61_73   1
    RHS1      c_61_75   1
    RHS1      c_61_77   1
    RHS1      c_61_79   1
    RHS1      c_61_83   1
    RHS1      c_61_87   1
    RHS1      c_61_92   1
    RHS1      c_62_63   1
    RHS1      c_62_64   1
    RHS1      c_62_65   1
    RHS1      c_62_68   1
    RHS1      c_62_69   1
    RHS1      c_62_70   1
    RHS1      c_62_71   1
    RHS1      c_62_74   1
    RHS1      c_62_76   1
    RHS1      c_62_78   1
    RHS1      c_62_81   1
    RHS1      c_62_84   1
    RHS1      c_62_85   1
    RHS1      c_62_86   1
    RHS1      c_62_89   1
    RHS1      c_62_91   1
    RHS1      c_62_92   1
    RHS1      c_62_94   1
    RHS1      c_62_98   1
    RHS1      c_62_99   1
    RHS1      c_63_65   1
    RHS1      c_63_68   1
    RHS1      c_63_69   1
    RHS1      c_63_71   1
    RHS1      c_63_74   1
    RHS1      c_63_75   1
    RHS1      c_63_76   1
    RHS1      c_63_77   1
    RHS1      c_63_78   1
    RHS1      c_63_79   1
    RHS1      c_63_81   1
    RHS1      c_63_83   1
    RHS1      c_63_84   1
    RHS1      c_63_86   1
    RHS1      c_63_89   1
    RHS1      c_63_90   1
    RHS1      c_63_92   1
    RHS1      c_63_94   1
    RHS1      c_63_98   1
    RHS1      c_64_69   1
    RHS1      c_64_70   1
    RHS1      c_64_74   1
    RHS1      c_64_85   1
    RHS1      c_64_86   1
    RHS1      c_64_87   1
    RHS1      c_64_89   1
    RHS1      c_64_90   1
    RHS1      c_64_92   1
    RHS1      c_64_99   1
    RHS1      c_65_67   1
    RHS1      c_65_68   1
    RHS1      c_65_69   1
    RHS1      c_65_70   1
    RHS1      c_65_71   1
    RHS1      c_65_74   1
    RHS1      c_65_75   1
    RHS1      c_65_77   1
    RHS1      c_65_81   1
    RHS1      c_65_83   1
    RHS1      c_65_92   1
    RHS1      c_65_94   1
    RHS1      c_65_97   1
    RHS1      c_65_98   1
    RHS1      c_66_67   1
    RHS1      c_66_68   1
    RHS1      c_66_70   1
    RHS1      c_66_77   1
    RHS1      c_66_86   1
    RHS1      c_66_87   1
    RHS1      c_66_88   1
    RHS1      c_66_89   1
    RHS1      c_66_92   1
    RHS1      c_66_94   1
    RHS1      c_67_69   1
    RHS1      c_67_70   1
    RHS1      c_67_73   1
    RHS1      c_67_75   1
    RHS1      c_67_77   1
    RHS1      c_67_79   1
    RHS1      c_67_84   1
    RHS1      c_67_85   1
    RHS1      c_67_87   1
    RHS1      c_67_91   1
    RHS1      c_67_92   1
    RHS1      c_67_95   1
    RHS1      c_67_97   1
    RHS1      c_68_70   1
    RHS1      c_68_71   1
    RHS1      c_68_78   1
    RHS1      c_68_87   1
    RHS1      c_68_88   1
    RHS1      c_68_89   1
    RHS1      c_68_90   1
    RHS1      c_68_94   1
    RHS1      c_68_97   1
    RHS1      c_69_73   1
    RHS1      c_69_74   1
    RHS1      c_69_75   1
    RHS1      c_69_76   1
    RHS1      c_69_84   1
    RHS1      c_69_86   1
    RHS1      c_69_91   1
    RHS1      c_69_99   1
    RHS1      c_70_74   1
    RHS1      c_70_77   1
    RHS1      c_70_78   1
    RHS1      c_70_84   1
    RHS1      c_70_85   1
    RHS1      c_70_86   1
    RHS1      c_70_87   1
    RHS1      c_70_88   1
    RHS1      c_70_89   1
    RHS1      c_70_90   1
    RHS1      c_70_92   1
    RHS1      c_70_94   1
    RHS1      c_70_97   1
    RHS1      c_71_74   1
    RHS1      c_71_77   1
    RHS1      c_71_79   1
    RHS1      c_71_81   1
    RHS1      c_71_87   1
    RHS1      c_71_89   1
    RHS1      c_71_90   1
    RHS1      c_71_92   1
    RHS1      c_71_94   1
    RHS1      c_71_98   1
    RHS1      c_73_77   1
    RHS1      c_73_81   1
    RHS1      c_73_83   1
    RHS1      c_73_84   1
    RHS1      c_73_85   1
    RHS1      c_73_86   1
    RHS1      c_73_94   1
    RHS1      c_73_99   1
    RHS1      c_74_77   1
    RHS1      c_74_78   1
    RHS1      c_74_81   1
    RHS1      c_74_83   1
    RHS1      c_74_84   1
    RHS1      c_74_85   1
    RHS1      c_74_89   1
    RHS1      c_74_91   1
    RHS1      c_74_92   1
    RHS1      c_74_94   1
    RHS1      c_74_95   1
    RHS1      c_74_96   1
    RHS1      c_74_98   1
    RHS1      c_74_99   1
    RHS1      c_75_77   1
    RHS1      c_75_78   1
    RHS1      c_75_79   1
    RHS1      c_75_80   1
    RHS1      c_75_83   1
    RHS1      c_75_87   1
    RHS1      c_75_89   1
    RHS1      c_75_91   1
    RHS1      c_75_92   1
    RHS1      c_75_95   1
    RHS1      c_75_99   1
    RHS1      c_76_79   1
    RHS1      c_76_80   1
    RHS1      c_76_84   1
    RHS1      c_76_86   1
    RHS1      c_76_94   1
    RHS1      c_76_97   1
    RHS1      c_76_99   1
    RHS1      c_77_81   1
    RHS1      c_77_83   1
    RHS1      c_77_85   1
    RHS1      c_77_86   1
    RHS1      c_77_87   1
    RHS1      c_77_89   1
    RHS1      c_77_91   1
    RHS1      c_77_92   1
    RHS1      c_77_93   1
    RHS1      c_77_94   1
    RHS1      c_77_95   1
    RHS1      c_77_96   1
    RHS1      c_77_97   1
    RHS1      c_77_99   1
    RHS1      c_78_79   1
    RHS1      c_78_80   1
    RHS1      c_78_83   1
    RHS1      c_78_86   1
    RHS1      c_78_88   1
    RHS1      c_78_89   1
    RHS1      c_78_91   1
    RHS1      c_78_92   1
    RHS1      c_78_95   1
    RHS1      c_78_99   1
    RHS1      c_79_80   1
    RHS1      c_79_83   1
    RHS1      c_79_84   1
    RHS1      c_79_86   1
    RHS1      c_79_87   1
    RHS1      c_79_88   1
    RHS1      c_79_89   1
    RHS1      c_79_90   1
    RHS1      c_79_94   1
    RHS1      c_79_96   1
    RHS1      c_79_97   1
    RHS1      c_79_99   1
    RHS1      c_80_83   1
    RHS1      c_80_89   1
    RHS1      c_80_91   1
    RHS1      c_80_92   1
    RHS1      c_80_94   1
    RHS1      c_80_95   1
    RHS1      c_80_96   1
    RHS1      c_80_97   1
    RHS1      c_80_99   1
    RHS1      c_81_83   1
    RHS1      c_81_85   1
    RHS1      c_81_98   1
    RHS1      c_81_99   1
    RHS1      c_83_85   1
    RHS1      c_83_89   1
    RHS1      c_83_92   1
    RHS1      c_83_94   1
    RHS1      c_83_96   1
    RHS1      c_83_99   1
    RHS1      c_84_85   1
    RHS1      c_84_86   1
    RHS1      c_84_90   1
    RHS1      c_84_91   1
    RHS1      c_84_92   1
    RHS1      c_84_95   1
    RHS1      c_84_98   1
    RHS1      c_84_99   1
    RHS1      c_85_89   1
    RHS1      c_85_91   1
    RHS1      c_85_92   1
    RHS1      c_85_94   1
    RHS1      c_85_95   1
    RHS1      c_85_97   1
    RHS1      c_85_99   1
    RHS1      c_86_87   1
    RHS1      c_86_89   1
    RHS1      c_86_90   1
    RHS1      c_86_95   1
    RHS1      c_86_99   1
    RHS1      c_87_88   1
    RHS1      c_87_89   1
    RHS1      c_87_90   1
    RHS1      c_87_92   1
    RHS1      c_87_93   1
    RHS1      c_87_94   1
    RHS1      c_87_97   1
    RHS1      c_88_89   1
    RHS1      c_88_94   1
    RHS1      c_89_91   1
    RHS1      c_89_92   1
    RHS1      c_89_94   1
    RHS1      c_89_95   1
    RHS1      c_89_96   1
    RHS1      c_89_99   1
    RHS1      c_90_99   1
    RHS1      c_91_92   1
    RHS1      c_91_95   1
    RHS1      c_91_99   1
    RHS1      c_92_93   1
    RHS1      c_92_95   1
    RHS1      c_92_98   1
    RHS1      c_92_99   1
    RHS1      c_94_97   1
    RHS1      c_94_98   1
    RHS1      c_94_99   1
    RHS1      c_95_97   1
    RHS1      c_95_99   1
    RHS1      c_96_98   1
    RHS1      c_97_99   1
BOUNDS
 BV BND1      x[0]    
 BV BND1      x[1]    
 BV BND1      x[2]    
 BV BND1      x[3]    
 BV BND1      x[4]    
 BV BND1      x[5]    
 BV BND1      x[6]    
 BV BND1      x[7]    
 BV BND1      x[8]    
 BV BND1      x[9]    
 BV BND1      x[10]   
 BV BND1      x[11]   
 BV BND1      x[12]   
 BV BND1      x[13]   
 BV BND1      x[14]   
 BV BND1      x[15]   
 BV BND1      x[16]   
 BV BND1      x[17]   
 BV BND1      x[18]   
 BV BND1      x[19]   
 BV BND1      x[20]   
 BV BND1      x[21]   
 BV BND1      x[22]   
 BV BND1      x[23]   
 BV BND1      x[24]   
 BV BND1      x[25]   
 BV BND1      x[26]   
 BV BND1      x[27]   
 BV BND1      x[28]   
 BV BND1      x[29]   
 BV BND1      x[30]   
 BV BND1      x[31]   
 BV BND1      x[32]   
 BV BND1      x[33]   
 BV BND1      x[34]   
 BV BND1      x[35]   
 BV BND1      x[36]   
 BV BND1      x[37]   
 BV BND1      x[38]   
 BV BND1      x[39]   
 BV BND1      x[40]   
 BV BND1      x[41]   
 BV BND1      x[42]   
 BV BND1      x[43]   
 BV BND1      x[44]   
 BV BND1      x[45]   
 BV BND1      x[46]   
 BV BND1      x[47]   
 BV BND1      x[48]   
 BV BND1      x[49]   
 BV BND1      x[50]   
 BV BND1      x[51]   
 BV BND1      x[52]   
 BV BND1      x[53]   
 BV BND1      x[54]   
 BV BND1      x[55]   
 BV BND1      x[56]   
 BV BND1      x[57]   
 BV BND1      x[58]   
 BV BND1      x[59]   
 BV BND1      x[60]   
 BV BND1      x[61]   
 BV BND1      x[62]   
 BV BND1      x[63]   
 BV BND1      x[64]   
 BV BND1      x[65]   
 BV BND1      x[66]   
 BV BND1      x[67]   
 BV BND1      x[68]   
 BV BND1      x[69]   
 BV BND1      x[70]   
 BV BND1      x[71]   
 BV BND1      x[72]   
 BV BND1      x[73]   
 BV BND1      x[74]   
 BV BND1      x[75]   
 BV BND1      x[76]   
 BV BND1      x[77]   
 BV BND1      x[78]   
 BV BND1      x[79]   
 BV BND1      x[80]   
 BV BND1      x[81]   
 BV BND1      x[82]   
 BV BND1      x[83]   
 BV BND1      x[84]   
 BV BND1      x[85]   
 BV BND1      x[86]   
 BV BND1      x[87]   
 BV BND1      x[88]   
 BV BND1      x[89]   
 BV BND1      x[90]   
 BV BND1      x[91]   
 BV BND1      x[92]   
 BV BND1      x[93]   
 BV BND1      x[94]   
 BV BND1      x[95]   
 BV BND1      x[96]   
 BV BND1      x[97]   
 BV BND1      x[98]   
 BV BND1      x[99]   
ENDATA
